           5
 E= -0.34805997109736875      V= -0.34809074056152250      T=   3.0769464153774521E-005
 Xe   6.0327617536863829E-005   2.2541615410517786E-005   2.6492001905661504E-005
 Xe   5.9999678106332830        4.9998948647781427        2.9999688562156344     
 Xe  -6.9999921289077305        2.9999968726935600        7.9999902433928956     
 Xe  -7.9999760341741721      -0.99999636118794466       -4.9999831200319358     
 Xe   7.9999400248310826       -2.9999179178991691        1.9999975284215010     
           5
 E= -0.34805970189152802      V= -0.35182548903524297      T=   3.7657871437149697E-003
 Xe   7.3278270681795274E-003   2.7355998935132790E-003   3.2168853984092700E-003
 Xe   5.9960959922250536        4.9872416304851397        2.9962210271855594     
 Xe  -6.9990473690566652        2.9996216005477128        7.9988193938998471     
 Xe  -7.9971015769509961      -0.99955975789534102       -4.9979584506722468     
 Xe   7.9927251267144204       -2.9900390730310260        1.9997011441884327     
           5
 E= -0.34805890669845385      V= -0.36221507592706331      T=   1.4156169228609437E-002
 Xe   2.6985736982081707E-002   1.0050078167664189E-002   1.1836501684124633E-002
 Xe   5.9856815198625331        4.9531338999631931        2.9861223736165514     
 Xe  -6.9965257920005133        2.9986209243847419        7.9956965931723056     
 Xe  -7.9894504504017307      -0.99839602293715357       -4.9925683887566148     
 Xe   7.9733089855576189       -2.9634088795784503        1.9989129202836393     
           5
 E= -0.34805733438483327      V= -0.38055341527536640      T=   3.2496080890533151E-002
 Xe   5.9824470854038317E-002   2.2193524945558485E-002   2.6203297500037130E-002
 Xe   5.9684698581997129        4.8965250693136495        2.9693746035014428     
 Xe  -6.9924213578925638        2.9969950116214337        7.9906204765064084     
 Xe  -7.9770618420524446      -0.99650673521344435       -4.9838381024837020     
 Xe   7.9411888708912448       -2.9192068706672032        1.9976397249758213     
           5
 E= -0.34805441628055395      V= -0.40938274999929525      T=   6.1328333718741315E-002
 Xe  0.10723891356490121        3.9570918393433907E-002   4.6877392284403012E-002
 Xe   5.9440131806290459        4.8155459594885350        2.9454469654363336     
 Xe  -6.9867242821107194        2.9947442385378817        7.9835891376049029     
 Xe  -7.9600018078251056      -0.99389479465055164       -4.9718099674210556     
 Xe   7.8954739957418640       -2.8559663217693054        1.9958964720954246     
           5
 E= -0.34804887459685363      V= -0.45338767887378639      T=  0.10533880427693273     
 Xe  0.17142090951681091        6.2826615237512248E-002   7.4736733399987598E-002
 Xe   5.9116115578271780        4.7072048534639110        2.9134949560513546     
 Xe  -6.9794210999136022        2.9918693512308487        7.9746006193206940     
 Xe  -7.9383667457075680      -0.99056492213657099       -4.9565457156305310     
 Xe   7.8347553782771717       -2.7713358977957054        1.9937134068585036     
           5
 E= -0.34803761300772984      V= -0.52141436851333867      T=  0.17337675550560885     
 Xe  0.25571307952706579        9.2959501773051886E-002  0.11111612939895667     
 Xe   5.8702073035551630        4.5668197555904735        2.8722082649369192     
 Xe  -6.9704948053338942        2.9883717140200421        7.9636536936053837     
 Xe  -7.9122883615572910      -0.98652439710576567       -4.9381294865542262     
 Xe   7.7568627838089421       -2.6616265742778085        1.9911513986129754     
           5
 E= -0.34801214916587403      V= -0.63142007446639548      T=  0.28340792530052145     
 Xe  0.36527566024763458       0.13154238278575492       0.15806920402790858     
 Xe   5.8181934628354579        4.3869075710139676        2.8195181404518221     
 Xe  -6.9599251344642941        2.9842536762479348        7.9507490615617025     
 Xe  -7.8819402940902403      -0.98178408293787456       -4.9166718578056150     
 Xe   7.6583963054714292       -2.5209195471097896        1.9883354517641902     
           5
 E= -0.34794496967319555      V= -0.82433736311770567      T=  0.47639239344451012     
 Xe  0.50843865217444772       0.18116958189946691       0.21889917230965494     
 Xe   5.7530502989780699        4.1548285228777599        2.7519905102143030     
 Xe  -6.9476891309951894        2.9795191084379287        7.9358912101133186     
 Xe  -7.8475466602141548      -0.97635981853586185       -4.8923149780598232     
 Xe   7.5337468400568124       -2.3391573946792987        1.9855340854225560     
           5
 E= -0.34772611013546406      V=  -1.2107995618509360      T=  0.86307345171547190     
 Xe  0.69977969359857772       0.24646761805314737       0.29936373526890592     
 Xe   5.6706052417302448        3.8471620447702950        2.6634180660656344     
 Xe  -6.9337622880357710        2.9741741941550486        7.9190913843268174     
 Xe  -7.8093929848316677      -0.97027431075401616       -4.8652390281177036     
 Xe   7.3727703375385980       -2.0975295462244805        1.9833658424563541     
           5
 E= -0.34698285645166305      V=  -2.1622537635279753      T=   1.8152709070763122     
 Xe  0.96836433094201146       0.33665950247946802       0.41086811605813034     
 Xe   5.5632906189232596        3.4145286834333035        2.5411015423431396     
 Xe  -6.9181209870243432        2.9682286338632737        7.9003726839331803     
 Xe  -7.7678404798857486      -0.96355980411909392       -4.8356705102832311     
 Xe   7.1543065170447973       -1.7558570156569562        1.9833281679487869     
           5
 E= -0.36927831900375541      V=  -3.6169533965260330      T=   3.2476750775222776     
 Xe   1.3824628119490030       0.47101626410431668       0.57956054242022537     
 Xe   5.4037793902474096        2.7790349083911909        2.3600131920465057     
 Xe  -6.9007483783770347        2.9616976370158477        7.8797798996609689     
 Xe  -7.7233455934329678      -0.95626221615702223       -4.8038933863255098     
 Xe   6.8378517696135681       -1.2554865933543360        1.9845397521978161     
           5
 E= -0.34465130076003136      V=  -3.3826499928393865      T=   3.0379986920793551     
 Xe   1.8925952655065006       0.55517485397031252       0.76981542546886694     
 Xe   4.9753901623623742        2.8964687179054738        2.2489947810548405     
 Xe  -6.8816458356769319        2.9546089628893846        7.8573963977049202     
 Xe  -7.6764734688163250      -0.94844642130863210       -4.7702553093845221     
 Xe   6.6901338766243610       -1.4578061134565417        1.8940487051559041     
           5
 E= -0.34716536668785780      V=  -3.5106995191956343      T=   3.1635341525077765     
 Xe   1.9536726558721162       0.12779867459091462       0.70980856797529301     
 Xe   5.0201088511256833        3.7977874506756439        2.4536459098495076     
 Xe  -6.8608323163694616        2.9470074004274451        7.8333129245231401     
 Xe  -7.6276480369457555      -0.94017767601082980       -4.7350120268765963     
 Xe   6.5146988463173985       -1.9324158496831774        1.7382446245286634     
           5
 E= -0.35234555959589597      V=  -2.7438024129905885      T=   2.3914568533946925     
 Xe   2.2147218799194763      -0.30061516750579270       0.71408038109443028     
 Xe   5.0517422092121489        4.5152241954663186        2.6163267905908949     
 Xe  -6.8383891423511347        2.9389139884805973        7.8076033634410349     
 Xe  -7.5768727295963458      -0.93151729980429321       -4.6981671711972748     
 Xe   6.1487977828158371       -2.2220057166368341        1.5601566360709198     
           5
 E= -0.35275768239133054      V=  -2.2453534880352009      T=   1.8925958056438703     
 Xe   2.2475025967750799      -0.48169457328986870       0.69859982345171567     
 Xe   5.0305077702756424        5.0857507241477311        2.7320291238664081     
 Xe  -6.8144349919599296        2.9303559484011665        7.7803688684270966     
 Xe  -7.5242160185812148      -0.92254270482384459       -4.6597643417670680     
 Xe   6.0606406434904070       -2.6118693944351894        1.4487665260218543     
           5
 E= -0.34781201748457757      V=  -1.7476235502628341      T=   1.3998115327782565     
 Xe   1.9945735229870349      -0.44071978487390873       0.63992113319556476     
 Xe   4.9822102740598169        5.5780559644085166        2.8233227935171645     
 Xe  -6.7889998892248835        2.9213444208404757        7.7516161708080764     
 Xe  -7.4696133180360471      -0.91328152914972116       -4.6197554918928541     
 Xe   6.2818294102140646       -3.1453990712253681        1.4048953943720548     
           5
 E= -0.34790374776960609      V=  -1.2916671634483285      T=  0.94376341567872246     
 Xe   1.8998709361038693      -0.45546698166925664       0.61915027645325060     
 Xe   4.9170963450656222        6.0263040315563368        2.9005974179740042     
 Xe  -6.7620260768138252        2.9118663807776008        7.7212548281676776     
 Xe  -7.4127845456596697      -0.90371271520283947       -4.5779528539168890     
 Xe   6.3578433413039974       -3.5789907154618428        1.3369503313219635     
           5
 E= -0.34794059738209770      V=  -1.1932920833791749      T=  0.84535148599707721     
 Xe   1.9508584606101760      -0.54242187273421116       0.62856966869261277     
 Xe   4.8408932913041598        6.4462372951574531        2.9689492525113330     
 Xe  -6.7334785031510611        2.9019163330154925        7.6892217204463753     
 Xe  -7.3535329977690633      -0.89382679982863256       -4.5342181502666081     
 Xe   6.2952597490057824       -3.9119049556101055        1.2474775086162906     
           5
 E= -0.34785087089735289      V=  -1.3967169532966117      T=   1.0488660823992588     
 Xe   2.1350516679345559      -0.71265693011984954       0.66159484663854706     
 Xe   4.7573784279188613        6.8465015219636696        3.0313682381753573     
 Xe  -6.7033675874682075        2.8915024572427535        7.6555048764245601     
 Xe  -7.2918144144789343      -0.88364115002010923       -4.4885076738702345     
 Xe   6.1027519060937223       -4.1417058990664675        1.1400397126317696     
           5
 E= -0.35021456732982448      V=  -1.8971652367524201      T=   1.5469506694225956     
 Xe   2.4587680151612692      -0.99022323773012721       0.71459881373563972     
 Xe   4.6691952386769646        7.2327351912402582        3.0898535613544800     
 Xe  -6.6717515688998787        2.8806467110410510        7.6201412849376808     
 Xe  -7.2277336838066200      -0.87319880845732734       -4.4408695305566619     
 Xe   5.7715219988682627       -4.2499598560938576        1.0162758705288624     
           5
 E= -0.34853896334055956      V=  -1.3921771855586267      T=   1.0436382222180671     
 Xe   2.7165155613423000       -1.1801116272757051       0.76721243646247161     
 Xe   4.5781861246319062        7.6090497645740598        3.1458301679790122     
 Xe  -6.6387290741720948        2.8693823622807280        7.5832025896646869     
 Xe  -7.1615055319323373      -0.86255811114123260       -4.3914162777741321     
 Xe   5.5055329201302268       -4.4357623884378530       0.89517108366796061     
           5
 E= -0.34815288624708907      V=  -1.6374766520390218      T=   1.2893237657919328     
 Xe   2.6403910562281521      -0.98725876547905211       0.80286677148296670     
 Xe   4.4852804819118504        7.9780523945241866        3.2001267095477246     
 Xe  -6.6043566600575669        2.8577302426148803        7.5447126133042275     
 Xe  -7.0932497568011961      -0.85174881468577368       -4.3401939749697807     
 Xe   5.5719348787187597       -4.9967750569742435       0.79248788063486386     
           5
 E= -0.34790692589957550      V=  -1.1731254926954586      T=  0.82521856679588312     
 Xe   2.6348518615252106      -0.89179588164601076       0.83822024550150143     
 Xe   4.3907223051018542        8.3409323035312042        3.2530678252819794     
 Xe  -6.5685912503330757        2.8456824258115763        7.5045984405562924     
 Xe  -7.0228779252549680      -0.84074734120874695       -4.2871111106470119     
 Xe   5.5658950089609789       -5.4540715064880256       0.69122459930724145     
           5
 E= -0.34796495687957818      V=  -1.0500348324044364      T=  0.70206987552485822     
 Xe   2.7227730897059561      -0.93917186338245739       0.86976379253557179     
 Xe   4.2947450498942334        8.6986858799802409        3.3049294825806892     
 Xe  -6.5314008982705385        2.8332301427378037        7.4627929961898731     
 Xe  -6.9503162558559168      -0.82953508149294852       -4.2320824316131649     
 Xe   5.4641990145262582       -5.7632090778426459       0.59459616030703244     
           5
 E= -0.34788905214739252      V=  -1.1926558227262145      T=  0.84476677057882199     
 Xe   2.8885860413116422       -1.1234448135671624       0.89379682828780405     
 Xe   4.1976297042366424        9.0523609687332414        3.3560065779751054     
 Xe  -6.4928027482644080        2.8203709057177386        7.4192660377317985     
 Xe  -6.8755577550865388      -0.81812037303056862       -4.1750643949671931     
 Xe   5.2821447578026532       -5.9311666878532581       0.50599495097248570     
           5
 E= -0.34847227122656044      V=  -1.6875042003504865      T=   1.3390319291239261     
 Xe   3.1314512742789158       -1.4647431226208973       0.90505766177924951     
 Xe   4.0996301293233284        9.4029509103931979        3.4065700034350028     
 Xe  -6.4528616485482591        2.8071073303819909        7.3740191147755603     
 Xe  -6.7986490637358221      -0.80653872600700516       -4.1160467829925418     
 Xe   5.0204293086818250       -5.9387763921472922       0.43040000300272890     
           5
 E= -0.34457258417679770      V=  -1.1636513328944282      T=  0.81907874871763053     
 Xe   3.4069151595706111       -1.8742737922035582       0.91059778366999133     
 Xe   4.0009376531376990        9.7513095815345032        3.4568400246392104     
 Xe  -6.4116830111239045        2.7934461758192115        7.3270757241977149     
 Xe  -6.7196768652552645      -0.79485011085816115       -4.0550429668300474     
 Xe   4.7235070636708478       -5.8756318542920036       0.36052943432313073     
           5
 E= -0.34925394360671458      V=  -1.7774165408255631      T=   1.4281625972188485     
 Xe   3.5132194327480999       -1.7630427419456165       0.98867517763090318     
 Xe   3.9016667399993499        10.098016160913673        3.5069560681694760     
 Xe  -6.3693660013075011        2.7793898424145347        7.2784445331015721     
 Xe  -6.6387220974137922      -0.78311049137047095       -3.9920550433014208     
 Xe   4.5932019259738297       -6.3312527700121235       0.21797926439946996     
           5
 E= -0.34786950787488491      V=  -1.2354517351344312      T=  0.88758222725954627     
 Xe   3.6070277643898225       -1.6402362722060448        1.0656404200938507     
 Xe   3.8018708460062252        10.443280653247912        3.5569636474831521     
 Xe  -6.3259272026490692        2.7649216421924088        7.2280683647974833     
 Xe  -6.5558076463104529      -0.77131602903779051       -3.9270284820725259     
 Xe   4.4728362385634632       -6.7966499941964926        7.6356049698042536E-002
           5
 E= -0.34796020977896336      V=  -1.0326675021614897      T=  0.68470729238252637     
 Xe   3.7288442969039530       -1.6930610205856820        1.1086641325018578     
 Xe   3.7015927097704182        10.787240286623877        3.6068886665030679     
 Xe  -6.2813681398454513        2.7500167464302150        7.1758714307131832     
 Xe  -6.4709437988452159      -0.75945019160177751       -3.8598900793211128     
 Xe   4.3218749320162821       -7.0847458208666367       -3.1534150396993588E-002
           5
 E= -0.34791980921408339      V=  -1.1067113653152219      T=  0.75879155610113846     
 Xe   3.8662375218208487       -1.9039165827345583        1.1179146439796614     
 Xe   3.6008740684225082        11.130075327743755        3.6567634629233394     
 Xe  -6.2357205566784524        2.7346474968124674        7.1217861627224268     
 Xe  -6.3841373926012013      -0.74752042392363283       -3.7905622530649659     
 Xe   4.1527463590362803       -7.2132858178980355      -0.10590201656045961     
           5
 E= -0.34798530869631006      V=  -1.5141932271746243      T=   1.1662079184783143     
 Xe   4.0104556964495854       -2.2820837828440639        1.0880872012610481     
 Xe   3.4997515664049912        11.471974804063446        3.7066192286536821     
 Xe  -6.1890432949484637        2.7187818056325099        7.0657478220477943     
 Xe  -6.2953813188783752      -0.73556037609448466       -3.7189563785118640     
 Xe   3.9742173509722507       -7.1731124507574142      -0.14149787345066028     
           5
 E= -0.35165831935648795      V=  -1.5383574423073720      T=   1.1866991229508841     
 Xe   4.1531936541916767       -2.8085739905542653        1.0210378795376580     
 Xe   3.3982561880145297        11.813109083761141        3.7564809162983641     
 Xe  -6.1414158952272757        2.7023821188172210        7.0076875130504899     
 Xe  -6.2046458952440240      -0.72363271677239493       -3.6449669627214054     
 Xe   3.7946119482650795       -6.9832844952517084      -0.14023934616510458     
           5
 E= -0.35136737946486485      V=  -1.8262825816759631      T=   1.4749152022110983     
 Xe   4.3417213024060421       -2.9149224090222958        1.0743220033161582     
 Xe   3.2964154259314786        12.153608419266234        3.8063641141522848     
 Xe  -6.0929210148425135        2.6854040752328112        6.9475205253030934     
 Xe  -6.1118840677045005      -0.71181782223771584       -3.5684689503872824     
 Xe   3.5666683542094804       -7.2122722632390364      -0.25973769238425515     
           5
 E= -0.34785758690463719      V=  -1.3414669740344036      T=  0.99360938712976643     
 Xe   4.5501046110832952       -2.8311803214461810        1.1818273828575570     
 Xe   3.1942577878549221        12.493539910008382        3.8562722693816252     
 Xe  -6.0436028044334140        2.6677955868318772        6.8851269662177792     
 Xe  -6.0171047671012010      -0.70014645591658153       -3.4893354955844553     
 Xe   3.3163451725963866       -7.6300087194775017      -0.43389112287250919     
           5
 E= -0.34794704256383935      V=  -1.0557395555511782      T=  0.70779251298733881     
 Xe   4.7138526649015926       -2.9144680967542778        1.2326654756739992     
 Xe   3.0918118358737385        12.832945673108366        3.9062040809093275     
 Xe  -5.9934848005508972        2.6494959812931542        6.8203575436653106     
 Xe  -5.9203547679853310      -0.68861578494053932       -3.4074296003571463     
 Xe   3.1081750677608837       -7.8793577727067117      -0.55179749989149451     
           5
 E= -0.34794089418394814      V=  -1.0686035362742936      T=  0.72066264209034547     
 Xe   4.8277032012958268       -3.1474097484067523        1.2293472318515652     
 Xe   2.9891033452478610        13.171872102725343        3.9561585255369494     
 Xe  -5.9425967574298308        2.6304317597952998        6.7530385752017246     
 Xe  -5.8216439598024596      -0.67723964258001002       -3.3225749891523124     
 Xe   2.9474341706885965       -7.9776544715338868      -0.61596934343793042     
           5
 E= -0.34786715920182321      V=  -1.3891074339273495      T=   1.0412402747255263     
 Xe   4.8824116642472113       -3.5273563524439582        1.1693397039835491     
 Xe   2.8861555260342984        13.510366480066354        4.0061344701827792     
 Xe  -5.8909721425269899        2.6105135048776247        6.6829649171721055     
 Xe  -5.7209330549628348      -0.66605342630589659       -3.2345465330724736     
 Xe   2.8433380072083088       -7.9274702061941298      -0.62389255826596224     
           5
 E= -0.35212338247937081      V=  -1.8061769291871383      T=   1.4540535467077675     
 Xe   4.8653734872832048       -4.0589680720468593        1.0471255052490385     
 Xe   2.7829896850452633        13.848473104507498        4.0561303023187509     
 Xe  -5.8386437252918997        2.5896330615954670        6.6098914997053706     
 Xe  -5.6181263499245944      -0.65511680276601880       -3.1430613977715876     
 Xe   2.8084069028880210       -7.7240212912900947      -0.57008590950157301     
           5
 E= -0.35254072558899008      V=  -1.6751339338136868      T=   1.3225932082246967     
 Xe   4.9796780693029277       -4.3809593796999362        1.0222095135582594     
 Xe   2.6796258763615004        14.186230949563246        4.1061438152365497     
 Xe  -5.7856384157236604        2.5676611161560214        6.5335237817167613     
 Xe  -5.5130758318489290      -0.64451108353993591       -3.0477726522080966     
 Xe   2.6394103019081543       -7.7284216024794077      -0.61410445830347604     
           5
 E= -0.34792091440427564      V=  -1.4818049179951498      T=   1.1338840035908742     
 Xe   5.2847080614193374       -4.4047580810808720        1.1369982675166421     
 Xe   2.5760840346261209        14.523670442612136        4.1561720424292767     
 Xe  -5.7319699723598738        2.5444527228297997        6.4535108316316609     
 Xe  -5.4056985427643713      -0.63430432079730226       -2.9483057055356525     
 Xe   2.2768764190787736       -8.0290607635637716      -0.79837543604192718     
           5
 E= -0.34792775404976739      V=  -1.1121285750080128      T=  0.76420082095824537     
 Xe   5.4896398541180087       -4.5457516873345432        1.1882931329160731     
 Xe   2.4723835414079747        14.860816382392370        4.2062117464131594     
 Xe  -5.6776391268820428        2.5198436265541835        6.3694326824117740     
 Xe  -5.2960086225648499      -0.62454190084351513       -2.8442560867574764     
 Xe   2.0116243539208947       -8.2103664207685050      -0.91968147498352670     
           5
 E= -0.34795490868027612      V=  -1.0677858179986219      T=  0.71983090931834581     
 Xe   5.5849345791746821       -4.8009717562772298        1.1735242785317588     
 Xe   2.3685419692713410        15.197692564854112        4.2562599423924574     
 Xe  -5.6226318901903944        2.4936304282512882        6.2807743271949157     
 Xe  -5.1839972390504396      -0.61525578752573873       -2.7351182202774731     
 Xe   1.8531525807947968       -8.2750954493024373      -0.97544032784165657     
           5
 E= -0.34785860507993338      V=  -1.3098284157394005      T=  0.96196981065946707     
 Xe   5.5679365237047937       -5.1590165309974045        1.0945738756104493     
 Xe   2.2645751311571329        15.534321749843109        4.3063139168208568     
 Xe  -5.5669133744948693        2.4655573074329440        6.1868974227445310     
 Xe  -5.0696129114705037      -0.60645167583422843       -2.6202494321803500     
 Xe   1.8040146311034322       -8.2344108504444300      -0.96753578299548282     
           5
 E= -0.34997680217424865      V=  -1.8614582972617872      T=   1.5114814950875386     
 Xe   5.4188041782448231       -5.6232293395037836       0.94372475786417664     
 Xe   2.1604973104680307        15.870725268815413        4.3563712151739651     
 Xe  -5.5104203697569920        2.4353004497710824        6.0870027391585033     
 Xe  -4.9527623085735568      -0.59808910811645311       -2.4988313265915227     
 Xe   1.8838811896176819       -8.0847072709662662      -0.88826738560511942     
           5
 E= -0.34758041573931764      V=  -1.3450345767565297      T=  0.99745416101721207     
 Xe   5.3358488507108426       -6.0529067589821679       0.82438720109233654     
 Xe   2.0563214463984671        16.206922860966401        4.4064296422386162     
 Xe  -5.4530512970433396        2.4024457144930351        5.9800763483441823     
 Xe  -4.8333185543257411      -0.59004938883041136       -2.3698158238507689     
 Xe   1.8941995542597572       -7.9664124276468602      -0.84107736782436016     
           5
 E= -0.34820408736819863      V=  -1.6865556645619064      T=   1.3383515771937078     
 Xe   5.6665254068104920       -6.2424298047327031       0.90773724728832728     
 Xe   1.9520594000540106        16.542932540091847        4.4564872833389941     
 Xe  -5.3946596566221752        2.3664632507946091        5.8648147439327856     
 Xe  -4.7111803476878222      -0.58219974126017782       -2.2318804738266995     
 Xe   1.4872551974454824       -8.0847662448935811      -0.99715880073340513     
           5
 E= -0.34789892316170312      V=  -1.2393597982076707      T=  0.89146087504596760     
 Xe   5.8963605253205928       -6.4717336666856893       0.94630162436724274     
 Xe   1.8477220491804616        16.878770795919802        4.5065425229888865     
 Xe  -5.3350393759315340        2.3266610084992987        5.7395050697140775     
 Xe  -4.5863197797102355      -0.57450681010878646       -2.0833444410881703     
 Xe   1.1772765811407016       -8.1591913276246366       -1.1090047759820312     
           5
 E= -0.34795906089262041      V=  -1.1456277483240274      T=  0.79766868743140695     
 Xe   5.9717132066168048       -6.7558046889123737       0.91773843084341666     
 Xe   1.7433191219816009        17.214452934825701        4.5565939915616376     
 Xe  -5.2738724639048131        2.2820858648245368        5.6018202871222478     
 Xe  -4.4588052387896626      -0.56675097825894383       -1.9219394812552384     
 Xe   1.0176453740960609       -8.1739831324789414       -1.1542132282720583     
           5
 E= -0.34788245110085025      V=  -1.3287887741884248      T=  0.98090632308757453     
 Xe   5.9014841683068084       -7.0807309705746171       0.82852762097304322     
 Xe   1.6388592659168824        17.549993140937470        4.6066405328534961     
 Xe  -5.2106550370553357        2.2313714956142765        5.4484850316148332     
 Xe  -4.3288804856791643      -0.55823780676164425       -1.7444641052972265     
 Xe  0.99919208851079644       -8.1423958592155117       -1.1391890801441411     
           5
 E= -0.34841009474286655      V=  -1.8780127776262256      T=   1.5296026828833591     
 Xe   5.6676728665797995       -7.4398946170754430       0.67398741564143383     
 Xe   1.5343501696851174        17.885404525396929        4.6566811843073292     
 Xe  -5.1445663598669569        2.1724655600562937        5.2746760598879945     
 Xe  -4.1971054576490348      -0.54745587893178183       -1.5461788400331495     
 Xe   1.1396487812510629       -8.0705195894460289       -1.0591658198036042     
           5
 E= -0.34495107339416919      V=  -1.4782165923331529      T=   1.1332655189389838     
 Xe   5.3548017230057363       -7.8142433947658239       0.48823113819132624     
 Xe   1.4297986715124438        18.220699196121220        4.7067151532781706     
 Xe  -5.0741983695667434        2.1020842759868237        5.0728457118988137     
 Xe  -4.0646539614024766      -0.53143807634516360       -1.3196230264118674     
 Xe   1.3542519364510275       -7.9771020009970872      -0.94816897695643931     
           5
 E= -0.34924205930654595      V=  -2.2299444301573184      T=   1.8807023708507724     
 Xe   5.5491822974772029       -8.1717495083450480       0.48374755400741520     
 Xe   1.3252108601029400        18.555888370454820        4.7567417957408136     
 Xe  -4.9969360681916193        2.0144940322908025        4.8301539397328694     
 Xe  -3.9338705061493999      -0.50481415581685574       -1.0520821112237446     
 Xe   1.0564134167608645       -7.8938187385837537       -1.0185611782573498     
           5
 E= -0.34755224586211586      V=  -2.0132231344562466      T=   1.6656708885941307     
 Xe   5.7618328904413190       -8.5204828771041505       0.48782191968807675     
 Xe   1.2205921590671589        18.890982526846031        4.8067605898784311     
 Xe  -4.9073127504744658        1.8984180528033812        4.5221710420826930     
 Xe  -3.8095964594985583      -0.45776305266934042      -0.71945112459941574     
 Xe  0.73448416046453635       -7.8111546498759612       -1.0973024270497798     
           5
 E= -0.34843028308070512      V=  -2.5912060390778717      T=   2.2427757559971666     
 Xe   5.8014068078569547       -8.8446368711954459       0.43743930088839866     
 Xe   1.1159474250912884        19.225991447732987        4.8567710752471775     
 Xe  -4.7926090868881737        1.7295620225667729        4.0986858662832919     
 Xe  -3.7039262532916610      -0.36778001095553042      -0.27209977707711958     
 Xe  0.57918110723158267       -7.7431365881488201       -1.1207964653417430     
           5
 E= -0.33403680761914967      V=  -1.2541203555074110      T=  0.92008354788826130     
 Xe   5.6887211129450579       -9.1363404741605940       0.34179721489670978     
 Xe   1.0112810580388993        19.560924310382394        4.9067728240660964     
 Xe  -4.6833112836992132        1.5649799135791544        3.6763461271049662     
 Xe  -3.5862579624913900      -0.29278271528782623       0.17258005050429651     
 Xe  0.56956707520663896       -7.6967810345131671       -1.0974962165720630     
           5
 E= -0.34781502869524772      V=  -2.8951040676559816      T=   2.5472890389607339     
 Xe   5.4201473152803352       -9.3834288567035635       0.20262145914918850     
 Xe  0.90659659691989536        19.895789124103203        4.9567659806032207     
 Xe  -4.8096800619485993        1.8019248587512058        4.0165843706318967     
 Xe  -3.2261221098060227      -0.63078730522335469      -0.14742909961520420     
 Xe  0.70905825955438329       -7.6834978209275242       -1.0285427107690954     
           5
 E= -0.35158249938837649      V=  -2.5869726935230410      T=   2.2353901941346646     
 Xe   4.9884593600111078       -9.5714700398551820        2.0954927862644752E-002
 Xe  0.80189603022192069        20.230591679678970        5.0067519138737460     
 Xe  -4.9126043923497660        2.0056117825851554        4.3061850147178262     
 Xe  -2.8805034602638790      -0.95078892128725134      -0.41891776909814832     
 Xe   1.0027524623806097       -7.7139445011217243      -0.91497408735606089     
           5
 E= -0.35191415352029121      V=  -2.2611484777201514      T=   1.9092343241998602     
 Xe   4.7782876972916535       -9.8790575542888561      -0.11275854624665572     
 Xe  0.69718094440627953        20.565337026419407        5.0567319714118835     
 Xe  -4.9742225787492540        2.1488840187789320        4.4992812503461579     
 Xe  -2.5643961462610005       -1.2302230598218582      -0.59555251480814253     
 Xe   1.0631500833123140       -7.6049404310876625      -0.84770216070323323     
           5
 E= -0.34776646363081021      V=  -2.0615894888384676      T=   1.7138230252076574     
 Xe   4.8615189397530525       -10.347933678881962      -0.18376031927307970     
 Xe  0.59245289169223236        20.900029983094171        5.1067071575443332     
 Xe  -5.0112776230706677        2.2575856762284694        4.6405939953442541     
 Xe  -2.2550224593625243       -1.5060034290466084      -0.72180576776181971     
 Xe  0.81232825098790329       -7.3036785513941194      -0.84173506585367752     
           5
 E= -0.34763915153388614      V=  -1.9000691229395577      T=   1.5524299714056715     
 Xe   4.8116982016224208       -10.715007353523930      -0.27594526870104641     
 Xe  0.48771333541045375        21.234675076875028        5.1566782467810874     
 Xe  -5.0325470310182467        2.3446326363431682        4.7515014179919408     
 Xe  -1.9287949732464404       -1.8213838811128462      -0.81903792577704304     
 Xe  0.66193046723180915       -7.0429164785814784      -0.81319647029492892     
           5
 E= -0.34822680898790370      V=  -2.3682813298417096      T=   2.0200545208538059     
 Xe   4.6420202640104149       -10.976241874524353      -0.38375452936093779     
 Xe  0.38296364289373946        21.569276577934701        5.2066458806688285     
 Xe  -5.0432062578945978        2.4173330531852226        4.8436863119140643     
 Xe  -1.5541123838956519       -2.2410385808574587      -0.89742053007430711     
 Xe  0.57233473488609266       -6.7693291757381715      -0.76915713314763823     
           5
 E= -0.33926536565861976      V=  -1.3794458159858083      T=   1.0401804503271885     
 Xe   4.3845521446152143       -11.146684106588403      -0.49996767657774249     
 Xe  0.27820507292507829        21.903838525800285        5.2566106210680754     
 Xe  -5.0467649870028826        2.4804479686747620        4.9244732061408047     
 Xe  -1.1536043120312240       -2.7164870355158541      -0.96511931339558954     
 Xe  0.53761208149381134       -6.5211153523708498      -0.71599683723553698     
           5
 E= -0.34846266174318608      V=  -2.9216754525021380      T=   2.5732127907589519     
 Xe   4.0497344812780209       -11.223748293953928      -0.62030043058046336     
 Xe  0.17343873070300328        22.238364548078042        5.3065729158557504     
 Xe  -5.0453787416277791        2.5368918722393068        4.9979884739147327     
 Xe  -1.0491072484586108       -2.5273645142466714       -1.0704322502939774     
 Xe  0.87131277810536367       -7.0241436121168102      -0.61382870889602981     
           5
 E= -0.35497610342006158      V=  -2.0697843768503033      T=   1.7148082734302417     
 Xe   3.6281924844821618       -11.186829596468097      -0.74130167104210454     
 Xe   6.8665522448485755E-002   22.572857545586686        5.3565330047045716     
 Xe  -5.0396166684230890        2.5876802647300585        5.0651224091492857     
 Xe -0.94487496917952540       -2.3435347159822979       -1.1658859328416795     
 Xe   1.2876336306719645       -7.6301734978664060      -0.51446780997005892     
           5
 E= -0.35122259634190378      V=  -2.6465832829161728      T=   2.2953606865742691     
 Xe   3.5422771744403918       -11.683667780242660      -0.90573774361680914     
 Xe  -3.6113747726083514E-002   22.907320125381649        5.4064910687099488     
 Xe  -5.0297689235422904        2.6334456135880298        5.1262587387828003     
 Xe -0.78769476332668487       -2.2892102639341569       -1.2393119676746600     
 Xe   1.3113002601546642       -7.5678876947929128      -0.38770009620126700     
           5
 E= -0.34743868495440311      V=  -2.1594467791495719      T=   1.8120080941951688     
 Xe   3.5508392412136809       -12.324559400375417       -1.0804937805477941     
 Xe -0.14089834866160736        23.241754713375677        5.4564472816534781     
 Xe  -5.0162090341273053        2.6747882234387292        5.1820294395233324     
 Xe -0.58174866491935318       -2.3623065820000448       -1.2864319757407343     
 Xe   1.1880168064945829       -7.2296769544389772      -0.27155096488827069     
           5
 E= -0.35070638489982775      V=  -2.2465299506899217      T=   1.8958235657900939     
 Xe   3.4977235417427304       -12.834371763206281       -1.2352684460028500     
 Xe -0.24568761684472643        23.576163599622038        5.5064018220444382     
 Xe  -4.9993663412200693        2.7122611787138249        5.2332189078908664     
 Xe -0.31813581332373941       -2.5987506394462097       -1.2948333419837392     
 Xe   1.0654662296458017       -6.8553023756834062      -0.20951894194870235     
           5
 E= -0.35056301623836017      V=  -1.7173833512754857      T=   1.3668203350371255     
 Xe   3.4172579848035451       -13.277962883155016       -1.3790828478602226     
 Xe -0.35048095410538171        23.910548978021300        5.5563548786292820     
 Xe  -4.9797089488001793        2.7463863308037260        5.2806789654828385     
 Xe  -9.6739262440941887E-002  -2.6915555438131582       -1.3428509704501976     
 Xe   1.0096711805429561       -6.6874168818568860      -0.11510002580168388     
           5
 E= -0.34804367600654218      V=  -1.7639905458219600      T=   1.4159468698154178     
 Xe   3.3226241578165370       -13.682893157594640       -1.5157398187346627     
 Xe -0.45527783738990552        24.244912789223946        5.6063065875047240     
 Xe  -4.9575275271124983        2.7775331201006805        5.3249009890577979     
 Xe   1.0913425797922703E-004  -2.3579413784960734       -1.5134014967631504     
 Xe   1.0900720724278876       -6.9816113732339460        9.7933738935311793E-002
           5
 E= -0.34791045950145205      V=  -1.2895208434395455      T=  0.94161038393809349     
 Xe   3.2171211328882303       -14.055133758943088       -1.6448712799965171     
 Xe -0.56007781167428106        24.579256679632586        5.6562570120161624     
 Xe  -4.9329050838797359        2.8059420812990821        5.3659590382175590     
 Xe  0.12567640496089996       -2.1563484752989526       -1.6339099177664209     
 Xe   1.1501853577048871       -7.1737165266896579       0.25656514752923748     
           5
 E= -0.34796128546254290      V=  -1.1380320014487071      T=  0.79007071598616418     
 Xe   3.1033192424965188       -14.399745608918080       -1.7666696713140750     
 Xe -0.66488047081555202        24.913582199419608        5.7062062221721686     
 Xe  -4.9059514755979450        2.8318426539339141        5.4039864032521816     
 Xe  0.28201997946531532       -2.1121274543842175       -1.6921735166290852     
 Xe   1.1854927244516646       -7.2335517900512496       0.34865056251883580     
           5
 E= -0.34788094424123683      V=  -1.2409160564127728      T=  0.89303511217153597     
 Xe   2.9836851765861701       -14.722600687240792       -1.8822946817658968     
 Xe -0.76968545354497575        25.247890839941086        5.7561543094849288     
 Xe  -4.8768173879160521        2.8554373986070662        5.4392158880219599     
 Xe  0.46229882210982176       -2.2120603300049622       -1.6901056672768138     
 Xe   1.2005188427650395       -7.1686672213024298       0.37703015153584851     
           5
 E= -0.34830184022386645      V=  -1.7024782583287925      T=   1.3541764181049261     
 Xe   2.8602315567893117       -15.029317427160676       -1.9933006774711055     
 Xe -0.87449244174677421        25.582184022213646        5.8061013799931089     
 Xe  -4.8456695210156626        2.8768880766516198        5.4719302368758154     
 Xe  0.66481932033328850       -2.4718262146314354       -1.6187091012251478     
 Xe   1.1951110856398413       -6.9579284570731748       0.33397816182735551     
           5
 E= -0.34555126631174138      V=  -1.1789088461994666      T=  0.83335757988772519     
 Xe   2.7344466891592685       -15.324759674717782       -2.1012287611182061     
 Xe -0.97930115785072824        25.916463087060897        5.8560475471418272     
 Xe  -4.8126787548209773        2.8963152912865731        5.5024338488259650     
 Xe  0.87815518696745420       -2.8184706396423791       -1.5083105967556498     
 Xe   1.1793780365449873       -6.6695480639873175       0.25105796190609148     
           5
 E= -0.34956221260299847      V=  -1.8211025428511365      T=   1.4715403302481380     
 Xe   2.6072343436317342       -15.612234017227548       -2.2071126828243033     
 Xe  -1.0841113596414418        26.250729255812164        5.9059929103928743     
 Xe  -4.7779967401268113        2.9138239379575608        5.5309899413227894     
 Xe   1.0520655323406407       -2.6435930045134022       -1.6356248262323427     
 Xe   1.2028082237958833       -6.9087261720287829       0.40575465734101207     
           5
 E= -0.34785231832375718      V=  -1.2589034494112059      T=  0.91105113108744873     
 Xe   2.4789070712462276       -15.892676737356258       -2.3110364544664246     
 Xe  -1.1889228305681727        26.584983566106118        5.9559375214953922     
 Xe  -4.7417241905985472        2.9295655130755254        5.5577295323415683     
 Xe   1.2191781831406610       -2.4255324732181744       -1.7797962236188549     
 Xe   1.2325617667798390       -7.1963398686072111       0.57716562424834794     
           5
 E= -0.34795266700673744      V=  -1.0383570917403058      T=  0.69040442473356833     
 Xe   2.3496537896175509       -16.166530187834603       -2.4129159856130875     
 Xe  -1.2937353792013266        26.919226951406312        6.0058814191683609     
 Xe  -4.7039477217956360        2.9436937992473720        5.5827507211551177     
 Xe   1.3857728547665658       -2.3701757940429538       -1.8419542457659153     
 Xe   1.2622564566128538       -7.3262147687761310       0.66623809105554899     
           5
 E= -0.34791135228097203      V=  -1.1001851367451130      T=  0.75227378446414095     
 Xe   2.2197047528552516       -16.434606806119834       -2.5129112838864986     
 Xe  -1.3985488404185893        27.253460293650402        6.0558246520184831     
 Xe  -4.6647518691034602        2.9563195069314574        5.6061655194217552     
 Xe   1.5477316961752572       -2.4589169263903314       -1.8295980707632484     
 Xe   1.2958642604915496       -7.3162560680716879       0.68051918320953242     
           5
 E= -0.34795503403615813      V=  -1.5028264713204664      T=   1.1548714372843083     
 Xe   2.0892847579445402       -16.697911520168770       -2.6113481483885965     
 Xe  -1.5033630731340510        27.587684423263752        6.1057672760894981     
 Xe  -4.6242131655643250        2.9675106458459730        5.6280884795736839     
 Xe   1.7006699120549784       -2.6990253965494211       -1.7374891574377043     
 Xe   1.3376215686988655       -7.1582581523915403       0.61498155016314460     
           5
 E= -0.35223331432676885      V=  -1.4962526299728993      T=   1.1440193156461305     
 Xe   1.9585817568229835       -16.957479398444256       -2.7086196005966774     
 Xe  -1.6081779576130162        27.921900117125546        6.1557093512565384     
 Xe  -4.5823979744350627        2.9772966932914287        5.6486303674756453     
 Xe   1.8423063695857798       -3.0739664300077973       -1.5731430345833863     
 Xe   1.3896878056393254       -6.8677509819649174       0.47742291644790291     
           5
 E= -0.35155128817563641      V=  -1.8154047245652527      T=   1.4638534363896163     
 Xe   1.8277276110407166       -17.214180568539216       -2.8050615367578779     
 Xe  -1.7129933911642725        28.256108089031411        6.2056509337440318     
 Xe  -4.5393647186110018        2.9856902615305629        5.6678922601232422     
 Xe   2.0376800072262999       -3.0358140864209120       -1.6326766562089936     
 Xe   1.3869504915082684       -6.9918036956018428       0.56419499909962501     
           5
 E= -0.34783733649829385      V=  -1.3064071053616226      T=  0.95856976886332879     
 Xe   1.6967809095373332       -17.468385232413304       -2.9007583144505538     
 Xe  -1.8178092792005947        28.590308961051232        6.2555920586393698     
 Xe  -4.4951785667410427        2.9927665205789360        5.6859586567086806     
 Xe   2.2563671951081012       -2.8151566126857306       -1.7905681456253482     
 Xe   1.3598397412962129       -7.2995336365311347       0.74977574472787434     
           5
 E= -0.34794109993198075      V=  -1.0214313078545054      T=  0.67349020792252468     
 Xe   1.5657725621273801       -17.720248650011591       -2.9956903814910811     
 Xe  -1.9226255363846014        28.924503287643116        6.3055327501126754     
 Xe  -4.4499087006746336        2.9986317371725608        5.7029062446681671     
 Xe   2.4431465561127754       -2.7499672652268563       -1.8593391853003414     
 Xe   1.3636151188190901       -7.4529191095772349       0.84659057201060539     
           5
 E= -0.34792845108372017      V=  -1.0394851081407490      T=  0.69155665705702885     
 Xe   1.4347373013546489       -17.970009720362825       -3.0899034934974430     
 Xe  -2.0274420908923299        29.258691586536926        6.3554730358465701     
 Xe  -4.4036122949709036        3.0033582623661830        5.7188033601820374     
 Xe   2.5970692603799952       -2.8246239091940644       -1.8466625885104284     
 Xe   1.3992478241286004       -7.4674162193462266       0.86228968597929101     
           5
 E= -0.34785847856236640      V=  -1.3790073671963079      T=   1.0311488886339415     
 Xe   1.3037090152273365       -18.217966596433399       -3.1834977419976167     
 Xe  -2.1322588832494924        29.592874341425993        6.4054129467029579     
 Xe  -4.3563315241372784        3.0069829793572995        5.7337063455970281     
 Xe   2.7137080663694895       -3.0402608648354894       -1.7507488217122713     
 Xe   1.4711733257899544       -7.3416298595144198       0.79512727140993544     
           5
 E= -0.35308835585347564      V=  -1.7136420416248397      T=   1.3605536857713640     
 Xe   1.1727155338299808       -18.464436054704827       -3.2766004600668932     
 Xe  -2.2370758645815836        29.927052002213120        6.4553525150781654     
 Xe  -4.3080935480494231        3.0095110666477205        5.7476584891753690     
 Xe   2.7877899925319123       -3.4011759352511675       -1.5680088966604711     
 Xe   1.5846638862691229       -7.0709510789048586       0.64159835247386288     
           5
 E= -0.35312761447513852      V=  -1.7042652802647444      T=   1.3511376657896059     
 Xe   1.0417756165998977       -18.709709002859359       -3.3693339237484849     
 Xe  -2.3418929942512423        30.261224983537552        6.5052917723112476     
 Xe  -4.2589150364663233        3.0109280290802292        5.7606928632057519     
 Xe   2.9601786631031417       -3.4794339443189171       -1.5562811684889102     
 Xe   1.5988537510145353       -7.0830100654395132       0.65963045672043008     
           5
 E= -0.34786103417335568      V=  -1.3763290853622805      T=   1.0284680511889248     
 Xe  0.91089639341306006       -18.953947870701299       -3.4617478298293127     
 Xe  -2.4467102342520506        30.595393654993551        6.5552307411741868     
 Xe  -4.2088322975929273        3.0112647417443261        5.7728556464144862     
 Xe   3.2338378387016165       -3.2705190364631740       -1.7187102958489766     
 Xe   1.5108082997303105       -7.3821914895734277       0.85237173808964806     
           5
 E= -0.34792770067830059      V=  -1.0292603873244852      T=  0.68133268664618463     
 Xe  0.78007907821402422       -19.197226923760184       -3.5538424565113420     
 Xe  -2.5515275490544731        30.929558347264763        6.6051694377708783     
 Xe  -4.1579013103089757        3.0105936896609551        5.7842070771794187     
 Xe   3.4485780234147394       -3.2000227498316254       -1.7937974195414239     
 Xe   1.4807717577346937       -7.5429023633339494       0.95826336110250177     
           5
 E= -0.34794044274268354      V=  -1.0053426221852186      T=  0.65740217944253510     
 Xe  0.64932536205503200       -19.439637166497221       -3.6456354237020925     
 Xe  -2.6563449094580847        31.263719366727422        6.6551078789485754     
 Xe  -4.1061655869062310        3.0089651317150121        5.7947953639875678     
 Xe   3.6028412067507731       -3.2617510865183470       -1.7844268542440933     
 Xe   1.5103439275585209       -7.5712962454269137       0.98015903501007595     
           5
 E= -0.34783628592005356      V=  -1.2862183387435129      T=  0.93838205282345932     
 Xe  0.51863721748560643       -19.681286854152560       -3.7371627310516233     
 Xe  -2.7611622922718198        31.597876997957542        6.7050460826279403     
 Xe  -4.0536516720972378        3.0064017228726159        5.8046526932726250     
 Xe   3.6940734510285074       -3.4517659806008192       -1.6920777502181683     
 Xe   1.6021032958549555       -7.4712258860768355       0.91954170536925794     
           5
 E= -0.35160170581065309      V=  -1.7897115418167162      T=   1.4381098360060631     
 Xe  0.38801586219980877       -19.922290106914570       -3.8284703786100223     
 Xe  -2.8659796793300467        31.932031504512498        6.7549840671044183     
 Xe  -4.0003697842519443        3.0029016391451262        5.8137957918390484     
 Xe   3.7120786940866020       -3.7811607950596215       -1.5085209446809655     
 Xe   1.7662549072955924       -7.2314822416834872       0.76821146434755516     
           5
 E= -0.35233322711612614      V=  -1.4712504279269529      T=   1.1189172008108268     
 Xe  0.25746102545824051       -20.162755823144952       -3.9196053651009208     
 Xe  -2.9707970563535646        32.266183129409100        6.8049218501756261     
 Xe  -3.9463169684475838        2.9984448152824275        5.8222287931862491     
 Xe   3.8250286959394790       -3.9524222149808792       -1.4301722299724746     
 Xe   1.8346243034034404       -7.1494499065657511       0.72262695171155600     
           5
 E= -0.34795136560651185      V=  -1.4607424405896534      T=   1.1127910749831416     
 Xe  0.12697015714751642       -20.402757036438850       -4.0105934387981579     
 Xe  -3.0756144100997487        32.600332093025365        6.8548594463324672     
 Xe  -3.8915081371236155        2.9930368462100128        5.8299712390562144     
 Xe   4.1496685857936466       -3.7728021216256069       -1.5860982364444201     
 Xe   1.6904838042822123       -7.4178097811709627       0.91186098985392983     
           5
 E= -0.34791150876865862      V=  -1.0509588604402964      T=  0.70304735167163779     
 Xe  -3.4607768351015843E-003  -20.642331241780155       -4.1014386342864739     
 Xe  -3.1804317275714871        32.934478594640936        6.9047968665535819     
 Xe  -3.8359877221833538        2.9867226453423572        5.8370685075983699     
 Xe   4.3985107763682416       -3.7035286052069036       -1.6656829749456479     
 Xe   1.6213694502217133       -7.5753413929962665        1.0252562350802077     
           5
 E= -0.34794853242364132      V= -0.98507573118961667      T=  0.63712719876597534     
 Xe -0.13383536034750043       -20.881517428448678       -4.1921488570130654     
 Xe  -3.2852489984519675        33.268622818101491        6.9547341215882605     
 Xe  -3.7797909827324765        2.9795354893822230        5.8435568052445266     
 Xe   4.5600737293690683       -3.7553382380468641       -1.6606326570169336     
 Xe   1.6388016121628901       -7.6113026409882236        1.0544905871972496     
           5
 E= -0.34784332866499068      V=  -1.2116964221329589      T=  0.86385309346796824     
 Xe -0.26415651548935637       -21.120359475623509       -4.2827383565373562     
 Xe  -3.3900662151748353        33.602764933441044        7.0046712223442622     
 Xe  -3.7229362276990612        2.9714888764845151        5.8494564259853297     
 Xe   4.6352602729118306       -3.9203306754417411       -1.5753782441286870     
 Xe   1.7418986854514347       -7.5335636588603672        1.0039889523364869     
           5
 E= -0.35002367752235353      V=  -1.7685185150784570      T=   1.4184948375561035     
 Xe -0.39442681216085163       -21.358902753252202       -4.3732249831819816     
 Xe  -3.4948833724176143        33.936905097644321        7.0546081796182394     
 Xe  -3.6654256617680261        2.9625790932154947        5.8547728513965271     
 Xe   4.6102140690608522       -4.2095855245595706       -1.4008966584306213     
 Xe   1.9445217772856529       -7.3309959130481053       0.86474061059787233     
           5
 E= -0.34765444815321167      V=  -1.1755003860740185      T=  0.82784593792080685     
 Xe -0.52464877491182960       -21.597191145834760       -4.4636275232314144     
 Xe  -3.5997004665846437        34.271043455376045        7.1045450038177185     
 Xe  -3.6072471670435284        2.9527888302935827        5.8594986441497356     
 Xe   4.6388926512160715       -4.4419967413741990       -1.2684835905648886     
 Xe   2.0927037573239460       -7.1846443984607200       0.76806746582888052     
           5
 E= -0.34816962188657619      V=  -1.5552292221993889      T=   1.2070596003128127     
 Xe -0.65482545617547450       -21.835258059037042       -4.5539586397386200     
 Xe  -3.7045174945888175        34.605180139330827        7.1544817040774964     
 Xe  -3.5484000540638809        2.9421111583515680        5.8636360194347894     
 Xe   4.9997488731398851       -4.3111576351803729       -1.4043218342756711     
 Xe   1.9079941316883047       -7.4008756034650425       0.94016275050203402     
           5
 E= -0.34789241058516862      V=  -1.0836332321210200      T=  0.73574082153585141     
 Xe -0.78496057232624095       -22.073122815001792       -4.6442219511052478     
 Xe  -3.8093344531461639        34.939315271127789        7.2044182878955585     
 Xe  -3.4889171393018970        2.9305661642799503        5.8672154979919542     
 Xe   5.2870898366584544       -4.2513551055656524       -1.4853966900087203     
 Xe   1.7961223281158687       -7.5454035148403698        1.0579848552264819     
           5
 E= -0.34795303202268579      V= -0.97435869011801135      T=  0.62640565809532556     
 Xe -0.91505748224104733       -22.310803433626049       -4.7344213974010154     
 Xe  -3.9141513399587491        35.273448962896850        7.2543547623433753     
 Xe  -3.4288271665238796        2.9181701143626744        5.8702634805010696     
 Xe   5.4616404145812307       -4.2976690030717153       -1.4841751234360721     
 Xe   1.7963955741424675       -7.5831466405618393        1.0939782779926701     
           5
 E= -0.34786183530567727      V=  -1.1504313053384367      T=  0.80256947003275947     
 Xe  -1.0451189406061820       -22.548319146497164       -4.8245630865673350     
 Xe  -4.0189681538682827        35.607581318059239        7.3042911343176318     
 Xe  -3.3681431190798388        2.9049278018981100        5.8727927636352213     
 Xe   5.5289087818774103       -4.4396497674785484       -1.4074833297530756     
 Xe   1.9033214316769154       -7.5245402059817081        1.0549625183675881     
           5
 E= -0.34894419727025761      V=  -1.6938595093893973      T=   1.3449153121191397     
 Xe  -1.1751472408355588       -22.785689372125468       -4.9146543847503192     
 Xe  -4.1237848946161790        35.941712431922092        7.3542274104540954     
 Xe  -3.3068629777875920        2.8908346807259204        5.8748036993256791     
 Xe   5.4736935118849708       -4.6851944901137257       -1.2476811539659127     
 Xe   2.1321016013543876       -7.3616632504088910       0.93330442893648546     
           5
 E= -0.34306943964562286      V= -0.98946323344064135      T=  0.64639379379501849     
 Xe  -1.3051443774136420       -23.022932875356968       -5.0047030869679441     
 Xe  -4.2286015626189535        36.275842392266696        7.4041635970517152     
 Xe  -3.2449707924726026        2.8758797946839856        5.8762856274619848     
 Xe   5.4098995609336820       -4.9409560635944851       -1.0802326413124526     
 Xe   2.3688171715715449       -7.1878332479993041       0.80448650376672726     
           5
 E= -0.34862701675089003      V=  -1.6527890167511070      T=   1.3041620000002170     
 Xe  -1.4351124338465726       -23.260065228446933       -5.0947152759753873     
 Xe  -4.3334181585425293        36.609971280121627        7.4540996998720477     
 Xe  -3.1824551628846542        2.8600538427354061        5.8772311842134473     
 Xe   5.7784603233515943       -4.8760633989445630       -1.1811071842133569     
 Xe   2.1725254319221907       -7.3338964954656181       0.94449157610327483     
           5
 E= -0.34787125041696976      V=  -1.1269336129396563      T=  0.77906236252268657     
 Xe  -1.5650539422623075       -23.497096571425921       -5.1846934664581923     
 Xe  -4.4382346829362422        36.944099170704717        7.5040357240036819     
 Xe  -3.1193362742911477        2.8433537810454608        5.8776555086639224     
 Xe   6.1064665067637165       -4.8355466958453617       -1.2595552738081193     
 Xe   2.0161583927260116       -7.4548096844789713        1.0625575075987339     
           5
 E= -0.34795398452272630      V= -0.97158756162534243      T=  0.62363357710261613     
 Xe  -1.6949712520783486       -23.734035766371537       -5.2746397893988748     
 Xe  -4.5430511366399777        37.278226133560338        7.5539716741866112     
 Xe  -3.0556357255942217        2.8257752130499969        5.8775740510170751     
 Xe   6.2983387154526236       -4.8820367945857672       -1.2605835658421463     
 Xe   1.9953193988599558       -7.4879287856531009        1.1036776300373623     
           5
 E= -0.34788360703488908      V=  -1.0999768790223947      T=  0.75209327198750564     
 Xe  -1.8248662787840741       -23.970891813591628       -5.3645570700063896     
 Xe  -4.6478675208733726        37.612352232768295        7.6039075549121771     
 Xe  -2.9913616512258190        2.8073116433981129        5.8769926815077902     
 Xe   6.3646107435671588       -5.0042762417828506       -1.1925558019708355     
 Xe   2.0994847073161385       -7.4444958207919898        1.0762126355572814     
           5
 E= -0.34832775141044636      V=  -1.5959296825913227      T=   1.2476019311808764     
 Xe  -1.9547405816520698       -24.207673564005589       -5.4544485376036587     
 Xe  -4.7526838371331754        37.946477527359029        7.6538433704076416     
 Xe  -2.9265091071577043        2.7879566723806399        5.8759087274537389     
 Xe   6.2912013469200447       -5.2059476767205162       -1.0502719759163162     
 Xe   2.3427321790229367       -7.3208129590136188       0.97496841565862313     
           5
 E= -0.34520444020040852      V=  -1.0689596250537092      T=  0.72375518485330070     
 Xe  -2.0845954551410140       -24.444389480488660       -5.5443175593782987     
 Xe  -4.8575000871025589        38.280602071724161        7.7037791246267844     
 Xe  -2.8610610627127682        2.7677073460042445        5.8743125695501970     
 Xe   6.1446409672295310       -5.4484322533814762      -0.86940658041086805     
 Xe   2.6585156377268451       -7.1554876838583246       0.83563244561221672     
           5
 E= -0.34949637653167831      V=  -1.7389568810293126      T=   1.3894605044976343     
 Xe  -2.2144321509256466       -24.681046978728620       -5.6341670311847274     
 Xe  -4.9623162725473442        38.614725916217473        7.7537148212454499     
 Xe  -2.7949999713721025        2.7465612191614590        5.8721943179810765     
 Xe   6.4797077610713991       -5.4571738824395499      -0.92279738145912160     
 Xe   2.4920406337737298       -7.2230662742108267       0.93105527341735617     
           5
 E= -0.34785068086218018      V=  -1.1817204233996386      T=  0.83386974253745838     
 Xe  -2.3442522243031654       -24.917651468746477       -5.7239985343550810     
 Xe  -5.0671323952441796        38.948849108000687        7.8036504636920885     
 Xe  -2.7283320959813375        2.7244946840397399        5.8695536118081755     
 Xe   6.8474440885610441       -5.4470896704683174      -0.99342356005514576     
 Xe   2.2922726269676770       -7.3086026528257131        1.0442180189099994     
           5
 E= -0.34795126524071540      V= -0.97637152700681895      T=  0.62842026176610355     
 Xe  -2.4740571838066079       -25.154207554412817       -5.8138132942527845     
 Xe  -5.1719484570320615        39.282971690904830        7.8535860551776597     
 Xe  -2.6610689098204121        2.7014755226228289        5.8663908929680701     
 Xe   7.0593899055340863       -5.5005656044166553      -0.99423539847520903     
 Xe   2.2476846451250374       -7.3296740546982715        1.0880717445822989     
           5
 E= -0.34790470371065896      V=  -1.0589801955410096      T=  0.71107549183035068     
 Xe  -2.6038482595594652       -25.390719704850689       -5.9036127178806153     
 Xe  -5.2767644597991490        39.617093705359700        7.9035215986929508     
 Xe  -2.5932120480661585        2.6774800381919168        5.8627027137760219     
 Xe   7.1302663695160664       -5.6074709641149365      -0.93393082558177587     
 Xe   2.3435583979087489       -7.2963830745860712        1.0713192309934485     
           5
 E= -0.34801688842985934      V=  -1.4925372331983136      T=   1.1445203447684542     
 Xe  -2.7336264429291690       -25.627192192897915       -5.9933983125158763     
 Xe  -5.3815804054433114        39.951215188661152        7.9534570970143239     
 Xe  -2.5247531983479972        2.6524969407913006        5.8584830563609378     
 Xe   7.0493233141314873       -5.7675756566455973      -0.81004664431520712     
 Xe   2.5906367325890356       -7.2089442799090184       0.99150480345585146     
           5
 E= -0.35092035160132373      V=  -1.3521268594762397      T=   1.0012065078749159     
 Xe  -2.8633925392171515       -25.863629034460779       -6.0831716009679058     
 Xe  -5.4863962958420416        40.285336175242463        8.0033925527138337     
 Xe  -2.4556755075862347        2.6265318834618663        5.8537256237218322     
 Xe   6.8427032273255826       -5.9689509834400525      -0.63488913470180997     
 Xe   2.9627611153198972       -7.0792880408035872       0.86094255923408247     
           5
 E= -0.35094135070326860      V=  -1.7847833343235857      T=   1.4338419836203171     
 Xe  -2.9931472805685404       -26.100033847794318       -6.1729339650554458     
 Xe  -5.5912121328528332        40.619456697035126        8.0533279681888015     
 Xe  -2.3859598997905858        2.5995984171645614        5.8484250369476261     
 Xe   7.0979900841063479       -6.0425501941430060      -0.63543536402072887     
 Xe   2.8723292291056661       -7.0764710722624606       0.90661632393978120     
           5
 E= -0.34783735059165066      V=  -1.2496483742956714      T=  0.90181102370402078     
 Xe  -3.1228915795770797       -26.336409556491272       -6.2626863455274684     
 Xe  -5.6960279183977258        40.953576784047108        8.1032633457415333     
 Xe  -2.3155979515520153        2.5716578183464822        5.8425669140076018     
 Xe   7.5000043959315841       -6.0748168526853155      -0.69204855831245693     
 Xe   2.6345130535952945       -7.1140081932171109        1.0089046440908280     
           5
 E= -0.34794458618982593      V= -0.98908123504312340      T=  0.64113664885329746     
 Xe  -3.2526263736618661       -26.572758667984672       -6.3524294763010118     
 Xe  -5.8008436544201682        41.287696464315289        8.1531986875576941     
 Xe  -2.2445848998768319        2.5426390513613910        5.8361292684783761     
 Xe   7.7328463950964634       -6.1430985473598421      -0.68942838423165154     
 Xe   2.5652085328624623       -7.1144783003322729        1.0525299044966303     
           5
 E= -0.34792324656173879      V=  -1.0267211287587152      T=  0.67879788219697645     
 Xe  -3.3823524348627467       -26.809083525297659       -6.4421641077606910     
 Xe  -5.9056593427929904        41.621815763785023        8.2031339956611316     
 Xe  -2.1729112279661358        2.5124904695679668        5.8290932126063453     
 Xe   7.8123935408375971       -6.2400817856104815      -0.63505150917635445     
 Xe   2.6485294647843376       -7.0851409224449613        1.0449884086696066     
           5
 E= -0.34788174258051896      V=  -1.3931707809123655      T=   1.0452890383318465     
 Xe  -3.5120703850455808       -27.045386305813075       -6.5318909906627276     
 Xe  -6.0104749853019221        41.955934706472704        8.2530692719214986     
 Xe  -2.1005627155866540        2.4811897325356109        5.8214465256252659     
 Xe   7.7329900328593588       -6.3627933307876532      -0.52896140240915213     
 Xe   2.8901180530748616       -7.0289448024076995       0.98633659552515518     
           5
 E= -0.35323621982542819      V=  -1.6304933376798361      T=   1.2772571178544079     
 Xe  -3.6417807266586162       -27.281669013596741       -6.6216108517338110     
 Xe  -6.1152905836419711        42.290053314639245        8.3030045180675334     
 Xe  -2.0275227554373747        2.4487505289925120        5.8131873043983919     
 Xe   7.4937013110576185       -6.5076193372229572      -0.37264519639887278     
 Xe   3.2908927546804052       -6.9495154928121643       0.87806422566679820     
           5
 E= -0.35269607647141088      V=  -1.7397333503115289      T=   1.3870372738401180     
 Xe  -3.7714838959551922       -27.517933466057805       -6.7113243608185815     
 Xe  -6.2201061394389718        42.624171608981655        8.3529397357100041     
 Xe  -1.9537757629053303        2.4152118816950385        5.8043223516119893     
 Xe   7.6296697180167161       -6.6186131609654240      -0.32520793559438543     
 Xe   3.3156960802828412       -6.9028368636535458       0.87927020909101195     
           5
 E= -0.34784715531155264      V=  -1.3329683099776630      T=  0.98512115466611039     
 Xe  -3.9011804192241524       -27.754181257366849       -6.8010320573451546     
 Xe  -6.3249216543728624        42.958289608915322        8.4028749264025997     
 Xe  -1.8792996384612102        2.3805306811745188        5.7948281332529916     
 Xe   8.0537411201174738       -6.7045510585777119      -0.36089969135756295     
 Xe   3.0516605919408146       -6.8800879741453738       0.96422868904716363     
           5
 E= -0.34793348451113182      V=  -1.0108000399181709      T=  0.66286655540703909     
 Xe  -4.0308708700532057       -27.990413805565964       -6.8907343904012777     
 Xe  -6.4297371301544759        43.292407332619042        8.4528100916349018     
 Xe  -1.8040626316965225        2.3445820247684357        5.7846486545989819     
 Xe   8.3059048997122886       -6.7962757137337029      -0.35103453975930393     
 Xe   2.9587657321919809       -6.8502998380879232        1.0043101839267368     
           5
 E= -0.34793834176167171      V=  -1.0030149559697219      T=  0.65507661420805019     
 Xe  -4.1605557310933534       -28.226632400548208       -6.9804317843652122     
 Xe  -6.5345525684021100        43.626524797001132        8.5027452327911757     
 Xe  -1.7280339291251658        2.3072677728890771        5.7737373618604071     
 Xe   8.3963558955624276       -6.8895853492322532      -0.30008355754715577     
 Xe   3.0267863330582694       -6.8175748201098783        1.0040327472608237     
           5
 E= -0.34783970956028831      V=  -1.3025007544556060      T=  0.95466104489531767     
 Xe  -4.2902353944640277       -28.462838210042811       -7.0701246383012961     
 Xe  -6.6393679706286592        43.960642017801646        8.5526803511553826     
 Xe  -1.6511870087412348        2.2685426211889799        5.7620687550696115     
 Xe   8.3257227670809950       -6.9805147250056399      -0.20999209706132368     
 Xe   3.2550676067529949       -6.7858317039423000       0.96536762913766117     
           5
 E= -0.35206848529999957      V=  -1.7735203887934332      T=   1.4214519034934336     
 Xe  -4.4199101796619145       -28.699032286149027       -7.1598133214046955     
 Xe  -6.7441833382481411        44.294759009699490        8.6026154479221830     
 Xe  -1.5735037869518238        2.2284251587834119        5.7496448443304029     
 Xe   8.0791945298141581       -7.0645601327495005       -7.9064627252404818E-002
 Xe   3.6584027750477901       -6.7595917495844873       0.88661765640454482     
           5
 E= -0.35290391152854395      V=  -1.5430248065171792      T=   1.1901208949886353     
 Xe  -4.5495803577027623       -28.935215575439862       -7.2494981698609520     
 Xe  -6.8489986725945426        44.628875786409068        8.6525505242097029     
 Xe  -1.4949779367239857        2.1869896164466991        5.7364935637428758     
 Xe   8.0745736723436696       -7.1710092570442967        1.6281059570715131E-003
 Xe   3.8189832946776918       -6.7096405703716977       0.85882597595133225     
           5
 E= -0.34791816016879973      V=  -1.4341321390957995      T=   1.0862139789269998     
 Xe  -4.6792462339039274       -29.171388953982582       -7.3391794859203872     
 Xe  -6.9538139750199024        44.962992360741609        8.7024855810837778     
 Xe  -1.4155786069867513        2.1442073844943357        5.7225932746343009     
 Xe   8.4983218735405526       -7.3181200573682652       -6.3157613716487114E-003
 Xe   3.5503169423701024       -6.6176907338851718       0.92041639157398780     
           5
 E= -0.34791734957945597      V=  -1.0435436086979997      T=  0.69562625911854370     
 Xe  -4.8089081556461828       -29.407553245087531       -7.4288575456346724     
 Xe  -7.0586292469104981        45.297108744639786        8.7524206195603185     
 Xe  -1.3352293362714074        2.0998810688142671        5.7078375877890615     
 Xe   8.7652314088116334       -7.4424158864601031        1.4973391932368758E-002
 Xe   3.4375353300165297       -6.5470206819064805       0.95362594635295195     
           5
 E= -0.34794949026101685      V= -0.98832905504042767      T=  0.64037956477941083     
 Xe  -4.9385664250627244       -29.643709189300086       -7.5185326000632333     
 Xe  -7.1634444895770342        45.631224949273388        8.8023556405919408     
 Xe  -1.2538566899495955        2.0538342887859082        5.6921290432260419     
 Xe   8.8666030951253330       -7.5388998675515850        6.5538885052489990E-002
 Xe   3.4892645094640988       -6.5024501812077080       0.95850903119279085     
           5
 E= -0.34784351187418050      V=  -1.2228030872879920      T=  0.87495957541381153     
 Xe  -5.0682212921127050       -29.879857443223194       -7.6082048746077842     
 Xe  -7.2682597042394770        45.965340985123049        8.8522906450731593     
 Xe  -1.1714068183925985        2.0059755238499366        5.6754131857595880     
 Xe   8.8098222598370128       -7.6047337176189957       0.14240438664963770     
 Xe   3.6980655549078429       -6.4867253481308769       0.93809665712542700     
           5
 E= -0.35015130209106093      V=  -1.7774076529371126      T=   1.4272563508460516     
 Xe  -5.1978729647281376       -30.115998588015213       -7.6978745702728641     
 Xe  -7.3730748920358602        46.299456862043471        8.9022256338478094     
 Xe  -1.0878539693136151        1.9563185833999852        5.6576916109822015     
 Xe   8.5764109748055475       -7.6316940143193959       0.24677815074901838     
 Xe   4.0823908512721383       -6.5080828431089248       0.89117917469386332     
           5
 E= -0.34820088065821619      V=  -1.2106314712861643      T=  0.86243059062794813     
 Xe  -5.3275216197710691       -30.352133139559143       -7.7875418659640321     
 Xe  -7.4778900540351954        46.633572589312010        8.9521606077153244     
 Xe  -1.0032074524485142        1.9049814762657080        5.6390238919464908     
 Xe   8.4373101786614360       -7.6870390928976020       0.33960932812941325     
 Xe   4.3713089475934135       -6.4993818331210402       0.85674803817283274     
           5
 E= -0.34814332011560301      V=  -1.5543405407522357      T=   1.2061972206366327     
 Xe  -5.4571674401804433       -30.588261585275607       -7.8772069304554400     
 Xe  -7.5827051912927690        46.967688175574665        9.0020955674276877     
 Xe -0.91744014034960064        1.8519801471708237        5.6194117383583553     
 Xe   8.8241527578421071       -7.8920227728253556       0.36414737778262546     
 Xe   4.1331600139807794       -6.3393839646445871       0.89155224688679990     
           5
 E= -0.34789564312686305      V=  -1.0908442754298826      T=  0.74294863230301955     
 Xe  -5.5868106347316395       -30.824384410189133       -7.9668699320062322     
 Xe  -7.6875203048821170        47.301803628791646        9.0520305136814141     
 Xe -0.83040270595159937        1.7970240600346901        5.5986773733433370     
 Xe   9.0974612042227623       -8.0579205219409360       0.40099600014502412     
 Xe   4.0072724413426641       -6.2165227566963246       0.91516604483648822     
           5
 E= -0.34795620498971958      V= -0.98418758007996832      T=  0.63623137509024874     
 Xe  -5.7164513925249407       -31.060502053780045       -8.0565310234912104     
 Xe  -7.7923353958259636        47.635918956431254        9.1019654471339333     
 Xe -0.74193325512964670        1.7398027617003535        5.5766280094553089     
 Xe   9.2070859711540756       -8.1646713679287313       0.45450738663917112     
 Xe   4.0436340723265438       -6.1505482964228984       0.92343018026282553     
           5
 E= -0.34786755601061159      V=  -1.1556865918092238      T=  0.80781903579861225     
 Xe  -5.8460898745411551       -31.296614901064700       -8.1461903389164423     
 Xe  -7.8971504650815643        47.970034165569942        9.1519003684144860     
 Xe -0.65191395691857434        1.6801310979676272        5.5531451735169757     
 Xe   9.1666839498754289       -8.2127845385712597       0.52170371530667248     
 Xe   4.2284703466659366       -6.1407658239016740       0.91944108167833616     
           5
 E= -0.34880488133186272      V=  -1.6916718146450940      T=   1.3428669333132313     
 Xe  -5.9757262190329064       -31.532723289390038       -8.2358479956340442     
 Xe  -8.0019655135483898        48.304149262928689        9.2018352781284545     
 Xe -0.56029151921831533        1.6179909310786964        5.5282143298606909     
 Xe   8.9608571774858987       -8.1912054256799003       0.60223401707208402     
 Xe   4.5771260743137860       -6.1982114789375373       0.90356437057284233     
           5
 E= -0.34293863843888917      V=  -1.0038600463143845      T=  0.66092140787549536     
 Xe  -6.1053605466358025       -31.768827515440098       -8.3255040967580207     
 Xe  -8.1067805420765566        48.638264254897372        9.2517701768601466     
 Xe -0.46709480270759529        1.5535454533294537        5.5019369364102308     
 Xe   8.7250242704907972       -8.1592271260063978       0.68601676362038055     
 Xe   4.9542116209292288       -6.2637550667804334       0.88578021986728950     
           5
 E= -0.34875131970925288      V=  -1.6882572644056291      T=   1.3395059446963762     
 Xe  -6.2349929736841343       -32.004927857436762       -8.4151587393611340     
 Xe  -8.2115955514878731        48.972379147450980        9.3017050651585933     
 Xe -0.37232592617688764        1.4868980073685247        5.4743759850272742     
 Xe   9.0234151035996781       -8.3955483961862694       0.74154823665993141     
 Xe   4.7954993477492893       -6.0588009011965696       0.89752945251536342     
           5
 E= -0.34786890544189086      V=  -1.1591716268370824      T=  0.81130272139519155     
 Xe  -6.3646236257240494       -32.241024602664083       -8.5048120245962249     
 Xe  -8.3164105425949550        49.306493945994006        9.3516399435095856     
 Xe -0.27571762885562345        1.4176431684502537        5.4452580734474871     
 Xe   9.2900297712704294       -8.6108245486511237       0.79726197182221203     
 Xe   4.6667220259042717       -5.8722879631291445       0.91065203581696696     
           5
 E= -0.34795765187000605      V= -0.99431987214096473      T=  0.64636222027095869     
 Xe  -6.4942526205124809       -32.477118017802795       -8.5944640466269497     
 Xe  -8.4212255161763157        49.640608655576926        9.4015748123678087     
 Xe -0.17691318454573418        1.3452286617849754        5.4142047636470236     
 Xe   9.4020141324152959       -8.7346283881133697       0.85691657878875105     
 Xe   4.6903771888193102       -5.7740909114458203       0.92176789182338570     
           5
 E= -0.34789852331434701      V=  -1.1039369689576441      T=  0.75603844564329714     
 Xe  -6.6238800623463536       -32.713208336512231       -8.6841148881421795     
 Xe  -8.5260404729700863        49.974723281036489        9.4515096721785561     
 Xe  -7.5631725766243676E-002   1.2692679645462004        5.3809485559742498     
 Xe   9.3774110746264281       -8.7725544910281137       0.91854388415167221     
 Xe   4.8481411864563322       -5.7582284180423979       0.93311277583771868     
           5
 E= -0.34812625826677324      V=  -1.5655072684446698      T=   1.2173810101778966     
 Xe  -6.7535060446410080       -32.949295763758791       -8.7737646220184278     
 Xe  -8.6308554136796261        50.308837827018621        9.5014445233803198     
 Xe   2.8275975473822882E-002   1.1896311535254147        5.3454056718318013     
 Xe   9.2076103159906797       -8.7135695422819186       0.98067584919559925     
 Xe   5.1484751668562119       -5.8356036745033970       0.94623857761072361     
           5
 E= -0.34860194571197456      V=  -1.2540259651106047      T=  0.90542401939863015     
 Xe  -6.8831306523183313       -33.185380480269650       -8.8634133130161281     
 Xe  -8.7356703389789061        50.642952297989638        9.5513793664055608     
 Xe  0.13477974424642794        1.1064956639281800        5.3077168298158490     
 Xe   8.9357148275592859       -8.5838035827348751        1.0424886974793672     
 Xe   5.5483064194916025       -5.9802638989133596       0.96182841931536345     
           5
 E= -0.35024821872755818      V=  -1.8050667433418124      T=   1.4548185246142542     
 Xe  -7.0127539650367758       -33.421462652502107       -8.9530610211327240     
 Xe  -8.8404852495156110        50.977066698169871        9.6013142016672148     
 Xe  0.24380580271754451        1.0201007032848028        5.2680681847620576     
 Xe   9.0912785816201254       -8.7878703720229261        1.1159593407657116     
 Xe   5.5181548302147956       -5.7878343769297160       0.96771929393775158     
           5
 E= -0.34784317044473057      V=  -1.2621690853523677      T=  0.91432591490763715     
 Xe  -7.1423760602021025       -33.657542451408737       -9.0427078070846818     
 Xe  -8.9453001459039783        51.311181031321624        9.6512490295164639     
 Xe  0.35582451983258734       0.92988940200993109        5.2260611429978674     
 Xe   9.3320645334494721       -9.0563702857101038        1.1913580782452045     
 Xe   5.3997871528241026       -5.5271576962127886       0.97403955632516181     
           5
 E= -0.34795196753490032      V=  -1.0287580626895465      T=  0.68080609515464618     
 Xe  -7.2719970104498906       -33.893620040401721       -9.1323537285875851     
 Xe  -9.0501150287268146        51.645295300904301        9.7011838502699845     
 Xe  0.47168415032794780       0.83480547113492287        5.1809119642499368     
 Xe   9.4366958806116692       -9.2027985829680272        1.2593990247913585     
 Xe   5.4137320082371740       -5.3836821486695552       0.99085888927632570     
           5
 E= -0.34792991976722354      V=  -1.0762066337388536      T=  0.72827671397163007     
 Xe  -7.4016168833239826       -34.129695564771232       -9.2219988377069733     
 Xe  -9.1549298985459693        51.979409510261476        9.7511186642442489     
 Xe  0.59216181700468173       0.73394823911239104        5.1319508983866369     
 Xe   9.4234162179306438       -9.2373441049927134        1.3197158775300446     
 Xe   5.5409687469347126       -5.3463180796100236        1.0192133975460631     
           5
 E= -0.34787722770026663      V=  -1.4368218368551064      T=   1.0889446091548398     
 Xe  -7.5312357424971719       -34.365769153878752       -9.3116431818017382     
 Xe  -9.2597447559069810        52.313523662643050        9.8010534717583440     
 Xe  0.71779642053534942       0.62678329652309794        5.0788141916160354     
 Xe   9.2916153837419184       -9.1528853166561355        1.3709624719418325     
 Xe   5.7815686941269746       -5.4216524886313646        1.0608130464855450     
           5
 E= -0.35307183301000444      V=  -1.7214189528966897      T=   1.3683471198866852     
 Xe  -7.6608536487438448       -34.601840923847163       -9.4012868045096791     
 Xe  -9.3645596013421617        52.647637761208671        9.8509882731334724     
 Xe  0.84873936741377343       0.51329283702706763        5.0215790951317798     
 Xe   9.0419147354657312       -8.9434907336686233        1.4120261267835388     
 Xe   6.1347591472065952       -5.6155989407200497        1.1166933094609075     
           5
 E= -0.35281698901379399      V=  -1.7816801343553508      T=   1.4288631453415568     
 Xe  -7.7904706601139253       -34.837910981121716       -9.4909297466444773     
 Xe  -9.4693744353686409        52.981751808992207        9.9009230686849143     
 Xe  0.98484262395964761       0.39381955989426559        4.9606274478530761     
 Xe   9.0250580622155319       -9.0112765633105916        1.4785717482856742     
 Xe   6.2499444093074850       -5.5263838244542605        1.1508074818208283     
           5
 E= -0.34785349759620932      V=  -1.4400865132337966      T=   1.0922330156375872     
 Xe  -7.9200868279170926       -35.073979429725298       -9.5805720462995545     
 Xe  -9.5741892584614714        53.315865808701531        9.9508578586804646     
 Xe   1.1270683917949509       0.26745899381485094        4.8953460086739300     
 Xe   9.2124093479107181       -9.3241983371177604        1.5678176236689436     
 Xe   6.1547983466729947       -5.1851470356734346        1.1665505552762332     
           5
 E= -0.34793191237267995      V=  -1.1274947634878689      T=  0.77956285111518897     
 Xe  -8.0497021968455069       -35.310046369647644       -9.6702137384407401     
 Xe  -9.6790040710543757        53.649979762752729        10.000792643345932     
 Xe   1.2780254245603024       0.13160694349125060        4.8237247300789354     
 Xe   9.2953774537572187       -9.4956147173887029        1.6435577571851123     
 Xe   6.1553033895824658       -4.9759256192077403        1.2021386078307770     
           5
 E= -0.34795748497530010      V=  -1.1174791976626179      T=  0.76952171268731784     
 Xe  -8.1793168103495102       -35.546111892266254       -9.7598548559399525     
 Xe  -9.7838188735706684        53.984093673487692        10.050727422907757     
 Xe   1.4408315569782366       -1.6702431583554195E-002   4.7434627396084839     
 Xe   9.2834631293167238       -9.5307914355721604        1.7062191158566888     
 Xe   6.2388409976253270       -4.8904879140658277        1.2594455775670388     
           5
 E= -0.34785917622453733      V=  -1.3695736077664959      T=   1.0217144315419586     
 Xe  -8.3089307118670632       -35.782176081365307       -9.8494954303041773     
 Xe  -9.8886336664301631        54.318207543210590        10.100662197598677     
 Xe   1.6186455457866120      -0.18034246930234643        4.6524865893269540     
 Xe   9.1833430301869630       -9.4315770185110530        1.7562016667884222     
 Xe   6.3955758023237621       -4.9241119740319803        1.3401449765901405     
           5
 E= -0.34956426394719409      V=  -1.9386952953825187      T=   1.5891310314353246     
 Xe  -8.4385439450007151       -36.018239014569062       -9.9391354920734578     
 Xe  -9.9934484500505132        54.652321374188581        10.150596967656458     
 Xe   1.8142205437583290      -0.36176200384298773        4.5494081201356495     
 Xe   8.9872600179817432       -9.1771608036773529        1.7922011763940018     
 Xe   6.6305118333112656       -5.0951595520992825        1.4469292278873604     
           5
 E= -0.34567059343467155      V=  -1.3597830023232886      T=   1.0141124088886171     
 Xe  -8.5681565533400352       -36.254300764550187       -10.028775071016474     
 Xe  -10.098263224846571        54.986435168642586        10.200531733321053     
 Xe   2.0293919019269313      -0.56264109240624316        4.4339291490814450     
 Xe   8.8088371108076444       -8.9618003658760070        1.8307602402757281     
 Xe   6.8281907654521392       -5.2076929458102450        1.5635539483382557     
           5
 E= -0.34819217475588604      V=  -1.9885495581453425      T=   1.6403573833894565     
 Xe  -8.6977685758431473       -36.490361399103641       -10.118414194206597     
 Xe  -10.203077991205447        55.320548928627140        10.250466494810462     
 Xe   2.2694571778345294      -0.78768465036490498        4.3037293055797221     
 Xe   8.8887255489086563       -9.2316626002211333        1.9051368671553246     
 Xe   6.7426638403055170       -4.8108402789375520        1.6590815266611028     
           5
 E= -0.34757971723775127      V=  -1.8264156257905781      T=   1.4788359085528269     
 Xe  -8.8273800420935871       -36.726420979747537       -10.208052883693167     
 Xe  -10.307892749459754        55.654662655920390        10.300401252299054     
 Xe   2.5562272140097702       -1.0548208629090474        4.1462829250098165     
 Xe   8.9263930535405276       -9.4119799829446720        1.9758314812718860     
 Xe   6.6526525240031535       -4.4614408303192228        1.7855372251124231     
           5
 E= -0.34842596120285663      V=  -2.3736995961270870      T=   2.0252736349242304     
 Xe  -8.9569909801651093       -36.962479563604084       -10.297691160124840     
 Xe  -10.412707499927629        55.988776352221961        10.350336005953743     
 Xe   2.9362852549548339       -1.3996880711915825        3.9357610539934829     
 Xe   8.8908778862675657       -9.4348106382366375        2.0410112309993642     
 Xe   6.5425353388704526       -4.1917980791897653        1.9705828691782687     
           5
 E= -0.33664966724017020      V=  -1.3082794226208239      T=  0.97162975538065366     
 Xe  -9.0866014196901972       -37.198537204904987       -10.387329044291469     
 Xe  -10.517522242929321        56.322890019235658        10.400270755946819     
 Xe   3.3405377140859898       -1.7680521255243118        3.7094130785492578     
 Xe   8.7965887658322774       -9.3285438868549555        2.1051176299109393     
 Xe   6.4669971827013590       -4.0277568019515124        2.1725275798844650     
           5
 E= -0.34905066474575230      V=  -3.1075699767850820      T=   2.7585193120393297     
 Xe  -9.2162113905217229       -37.434593955617878       -10.476966557258178     
 Xe  -10.622336978784253        56.657003658565543        10.450205502454267     
 Xe   3.1693233378933368       -1.7220422265557440        3.7667791373658295     
 Xe   8.6433837180977608       -9.0871628885933013        2.1708809272057610     
 Xe   7.0258413133149853       -4.4132045877987043        2.0891009902323292     
           5
 E= -0.33780771983457303      V=  -1.3925821262679114      T=   1.0547744064333384     
 Xe  -9.3458209212507608       -37.670649866897193       -10.566603720921147     
 Xe  -10.727151707809472        56.991117271548184        10.500140245652192     
 Xe   3.0382561066667630       -1.7055666483661045        3.8105400232778819     
 Xe   8.4723909704400864       -8.8332162929936970        2.2413642250304728     
 Xe   7.5623255519534949       -4.7816844632912616        2.0145592269606021     
           5
 E= -0.34817077135585839      V=  -2.3322973159580540      T=   1.9841265446021956     
 Xe  -9.4754300366437079       -37.906704985589535       -10.656240554783636     
 Xe  -10.831966430297065        57.325230859383240        10.550074985700153     
 Xe   3.0253825811859905       -1.7706386187707506        3.8073529207475074     
 Xe   8.4658168484182408       -9.3065850239645638        2.3528226857093109     
 Xe   7.8161970373366483       -4.3413022310584797        1.9459899626266630     
           5
 E= -0.34765621178128581      V=  -1.7612435119540157      T=   1.4135873001727299     
 Xe  -9.6050387504645567       -38.142759346984924       -10.745877070313430     
 Xe  -10.936781146469539        57.659344423088683        10.600009722716933     
 Xe   3.1309641025880413       -1.9021025244578662        3.7586141093969729     
 Xe   8.4521600070039611       -9.7068506453425307        2.4582248842858507     
 Xe   7.9586957873421937       -3.9076319063034539        1.9290283539136723     
           5
 E= -0.34782622487834192      V=  -1.8750121838940814      T=   1.5271859590157395     
 Xe  -9.7346470745582998       -38.378812982185202       -10.835513276940070     
 Xe  -11.041595856528538        57.993457963657804        10.649944456811568     
 Xe   3.3816123461392560       -2.0965946716159070        3.6554124806149204     
 Xe   8.4239338518527482       -9.9748028473131178        2.5528470891603448     
 Xe   7.9706967330949361       -3.5432474625436647        1.9773092503532377     
           5
 E= -0.35249724478633016      V=  -1.8975782177390086      T=   1.5450809729526784     
 Xe  -9.8642550222070433       -38.614865921656872       -10.925149184798419     
 Xe  -11.146410560672223        58.327571482098222        10.699879188093600     
 Xe   3.7817536512476635       -2.3435474647765315        3.4978192680998461     
 Xe   8.3873444079629405       -10.165862956061869        2.6417196721887319     
 Xe   7.8415675236687630       -3.2032951396030489        2.0857310564162419     
           5
 E= -0.35197893708795958      V=  -2.0146048396846958      T=   1.6626259025967363     
 Xe  -9.9938626073753589       -38.850918195211399       -11.014784804512516     
 Xe  -11.251225259093868        58.661684979393740        10.749813916671020     
 Xe   3.8103577643618127       -2.5320670448860976        3.4672065909345946     
 Xe   8.3439087561915990       -10.307106337078952        2.7276803554466911     
 Xe   8.0908213459159288       -2.9715934022173900        2.0700839414602092     
           5
 E= -0.34784691245484445      V=  -1.5231011507630585      T=   1.1752542383082141     
 Xe  -10.123469844945241       -39.086969832770350       -11.104420147191071     
 Xe  -11.356039951997714        58.995798456466602        10.799748642653880     
 Xe   3.6121529854656713       -2.6889287120835870        3.5142001419969970     
 Xe   8.2955021525831114       -10.410948803171918        2.8115202850433372     
 Xe   8.5718546588942814       -2.8089511084408647        1.9789510774968635     
           5
 E= -0.34793366581618157      V=  -1.1890313682620657      T=  0.84109770244588411     
 Xe  -10.253076750279062       -39.323020863640721       -11.194055223999758     
 Xe  -11.460854639593494        59.329911914196430        10.849683366152545     
 Xe   3.5896837499928340       -2.8563891583874463        3.5074491277312303     
 Xe   8.2439271969603141       -10.484457371384124        2.8933672860080355     
 Xe   8.8803204429195226       -2.6660445207842502        1.9435554441079557     
           5
 E= -0.34793491952986888      V=  -1.1771398126644368      T=  0.82920489313456791     
 Xe  -10.382683338262277       -39.559071315741868       -11.283690045924899     
 Xe  -11.565669322078948        59.664025353432308        10.899618087272295     
 Xe   3.7307469887244711       -3.0253653195910299        3.4530139838181602     
 Xe   8.1895914338939022       -10.531812649013323        2.9734622358211187     
 Xe   9.0280142377229637       -2.5477760690861957        1.9575957390133385     
           5
 E= -0.34783762475857372      V=  -1.4862155028959865      T=   1.1383778781374128     
 Xe  -10.512289623149169       -39.795121215847345       -11.373324623862377     
 Xe  -11.670483999638808        59.998138774986344        10.949552806112715     
 Xe   4.0355941249228362       -3.1882067770505671        3.3532627062036644     
 Xe   8.1319892103593663       -10.554578148670554        3.0520229631864710     
 Xe   9.0151902875058845       -2.4602326334180153        2.0184861483595302     
           5
 E= -0.35194200356918892      V=  -1.9843107046293806      T=   1.6323687010601917     
 Xe  -10.641895618596472       -40.031170589888276       -11.462958968712627     
 Xe  -11.775298672446610        60.332252179630117        10.999487522768192     
 Xe   4.5191693623738809       -3.3367661519139800        3.2067863335961890     
 Xe   8.0699451297850153       -10.551683916044915        3.1291339806611691     
 Xe   8.8280797988842892       -2.4126315217831182        2.1275511316870714     
           5
 E= -0.35265313486385819      V=  -1.7914954971182291      T=   1.4388423622543709     
 Xe  -10.771501337814025       -40.267219463159456       -11.552593091413101     
 Xe  -11.880113340668183        60.666365568095969        11.049422237329004     
 Xe   4.7838691467263308       -3.5619105153012249        3.1136635704047917     
 Xe   8.0016835037113623       -10.519037964290357        3.2046229029798190     
 Xe   8.8660620280446185       -2.3181976253451095        2.1848843806994833     
           5
 E= -0.34790279580852679      V=  -1.7176501059200728      T=   1.3697473101115460     
 Xe  -10.901106793958334       -40.503267859418031       -11.642227002275259     
 Xe  -11.984928004471143        61.000478941096368        11.099356949884973     
 Xe   4.6541045494775233       -3.9194569290020458        3.1159599005690568     
 Xe   7.9247892545531675       -10.451588327633337        3.2781712756787607     
 Xe   9.3071409943988943       -2.1261658250431332        2.1487388761424677     
           5
 E= -0.34786176186672968      V=  -1.4086782438563616      T=   1.0608164819896320     
 Xe  -11.030712000022191       -40.739315800257174       -11.731860710628830     
 Xe  -12.089742664024307        61.334592299331050        11.149291660525712     
 Xe   4.6859590384430971       -4.2486763993795966        3.0887687478535026     
 Xe   7.8350074821083808       -10.343250121947488        3.3494042104353112     
 Xe   9.5994881434951278       -2.0033499777469790        2.1443960918143028     
           5
 E= -0.34780350322009301      V=  -1.5309524250776159      T=   1.1831489218575229     
 Xe  -11.160316968544784       -40.975363306621432       -11.821494225771472     
 Xe  -12.194557319489981        61.668705643467305        11.199226369337525     
 Xe   4.8929994788553079       -4.5528963630685801        3.0342107761806227     
 Xe   7.7245990884791649       -10.180048286495513        3.4171260747860743     
 Xe   9.7372757207003975       -1.9603976872819819        2.1709310054672453     
           5
 E= -0.34744804849762079      V=  -2.1809814116715258      T=   1.8335333631739050     
 Xe  -11.289921711769262       -41.211410399476151       -11.911127557330076     
 Xe  -12.299371971025476        62.002818974139927        11.249161076403844     
 Xe   5.2781729168031486       -4.8577433148092375        2.9600955007138241     
 Xe   7.5790467467302234       -9.9298813085141937        3.4777397894772806     
 Xe   9.7320740192614839       -2.0037839513405564        2.2241311907351187     
           5
 E= -0.35387356840764639      V=  -3.5799815179106274      T=   3.2261079495029810     
 Xe  -11.419526241933822       -41.447457100135516       -12.000760715448116     
 Xe  -12.404186618786630        62.336932291958639        11.299095781806763     
 Xe   5.8753821931131007       -5.2025603675715431        2.8756687789300188     
 Xe   7.3760220044764324       -9.5284976016860021        3.5216011366626470     
 Xe   9.5723086631310412       -2.1584172225658054        2.3043950180486776     
           5
 E= -0.34870815512730102      V=  -1.8450254204756407      T=   1.4963172653483396     
 Xe  -11.549130571471494       -41.683503430540689       -12.090393710909993     
 Xe  -12.509001262930699        62.671045597512006        11.349030485627997     
 Xe   6.4458655900157327       -5.2599087778028633        2.7314633770969414     
 Xe   7.2413940486936550       -9.3787042747968989        3.6150700150933308     
 Xe   9.3708721956929306       -2.3489291143717659        2.3948298330917130     
           5
 E= -0.34922258692330521      V=  -3.3027132284696386      T=   2.9534906415463333     
 Xe  -11.678734710233748       -41.919549409932166       -12.180026552335795     
 Xe  -12.613815903594572        63.005158891308596        11.398965187935309     
 Xe   6.2311542164600189       -5.2720783690644621        2.5237986920618831     
 Xe   7.2659516639077992       -9.8751589335932515        3.8366395285084760     
 Xe   9.7954447334606360       -1.9383721787189310        2.4206231438301113     
           5
 E= -0.34755964718413779      V=  -2.1005396362223574      T=   1.7529799890382196     
 Xe  -11.808338662996787       -42.155595049606056       -12.269659242937916     
 Xe  -12.718630540869624        63.339272173754154        11.448899888773752     
 Xe   6.0155068276535753       -5.4366643187696173        2.3606745046624491     
 Xe   7.2659989253887316       -10.239140966558937        4.0195544755981043     
 Xe   10.245463450824236       -1.5078718388197427        2.4405303739035960     
           5
 E= -0.34777816065617895      V=  -1.6975562349801896      T=   1.3497780743240106     
 Xe  -11.937942434082894       -42.391640359123897       -12.359291785336062     
 Xe  -12.823445174840252        63.673385445242715        11.498834588187407     
 Xe   5.9449657301323260       -5.6850605851580394        2.2596531757140865     
 Xe   7.2224967241447571       -10.420749923319292        4.1406504293024531     
 Xe   10.593925154646191       -1.1759345776416750        2.4601535921320976     
           5
 E= -0.34806130399796520      V=  -1.8413456023540788      T=   1.4932842983561136     
 Xe  -12.067546028736047       -42.627685348881307       -12.448924183254631     
 Xe  -12.928259805597142        64.007498706175397        11.548769286225163     
 Xe   5.9728602790908791       -6.0558389003469859        2.2293282225608078     
 Xe   7.1339251478409427       -10.426017360903700        4.1924680163498049     
 Xe   10.889020407401498      -0.89795709604359020        2.4783586581188470     
           5
 E= -0.34941489117852464      V=  -1.6748882179280189      T=   1.3254733267494943     
 Xe  -12.197149452785908       -42.863730029572828       -12.538556441197105     
 Xe  -13.033074433234834        64.341611956955191        11.598703982939673     
 Xe   6.0606876682755031       -6.5209019193111883        2.2538444129054307     
 Xe   7.0136480318746308       -10.305988662505776        4.1902979836042293     
 Xe   11.155888185870733      -0.65099134556558858        2.4957100617477708     
           5
 E= -0.35029092240835569      V=  -1.8927659558830727      T=   1.5424750334747170     
 Xe  -12.326752712089915       -43.099774411752065       -12.628188563862741     
 Xe  -13.137889057847016        64.675725197972938        11.648638678383366     
 Xe   6.0822228698783061       -6.6411733571009766        2.1054952229689978     
 Xe   6.9753133612068874       -10.511820677192848        4.3613392923938115     
 Xe   11.407105538851866      -0.42295675192722959        2.5127153701165685     
           5
 E= -0.34790260916206517      V=  -1.5042812139118107      T=   1.1563786047497455     
 Xe  -12.456355811737687       -43.335818505704594       -12.717820555155745     
 Xe  -13.242703679518584        65.009838429580356        11.698573372599320     
 Xe   6.0822928581122007       -6.6235989876234891        1.8911407428954494     
 Xe   6.9689982836229198       -10.842398782613262        4.5988315502315533     
 Xe   11.647768349521279      -0.20802215363922447        2.5292748894294221     
           5
 E= -0.34790795733654922      V=  -1.3102167104527489      T=  0.96230875311619968     
 Xe  -12.585958756437837       -43.571862321486478       -12.807452418585239     
 Xe  -13.347518298329287        65.343951652104806        11.748508065625522     
 Xe   6.1219411328332809       -6.7502306693394285        1.7759728146240272     
 Xe   6.9311308419979927       -11.018954954842934        4.7377658503479054     
 Xe   11.880405079935983       -2.9037064361787756E-003   2.5452056879877807     
           5
 E= -0.34792480678219340      V=  -1.5015715299467589      T=   1.1536467231645655     
 Xe  -12.715561550987509       -43.807905868772608       -12.897084157927679     
 Xe  -13.452332914359364        65.678064865869899        11.798442757502174     
 Xe   6.1966611747580203       -7.0263995324658444        1.7697722579679500     
 Xe   6.8640859188773895       -11.038671670029741        4.7682942469229213     
 Xe   12.107147371711607       0.19491220539810045        2.5605748955346237     
           5
 E= -0.35078056910201982      V=  -1.7798111581125822      T=   1.4290305890105623     
 Xe  -12.845164200205065       -44.043949156738933       -12.986715777212435     
 Xe  -13.557147527689475        66.012178071195549        11.848377448271975     
 Xe   6.2988935826875716       -7.4393171311834596        1.8693337570694011     
 Xe   6.7736651764337843       -10.916297882929316        4.6934327848423880     
 Xe   12.329752968773324       0.38738609965595983        2.5755717870286556     
           5
 E= -0.35058913534520575      V=  -1.6425987309452355      T=   1.2920095956000297     
 Xe  -12.974766708789424       -44.279992194068754       -13.076347280533415     
 Xe  -13.661962138399161        66.346291268392989        11.898312137978245     
 Xe   6.3847626418477210       -7.6850495256889531        1.8286213232059187     
 Xe   6.7024343308441328       -10.957238107102601        4.7590330896124202     
 Xe   12.549531874496875       0.57598855846711416        2.5903807297368213     
           5
 E= -0.34801774103597882      V=  -1.5498751163061764      T=   1.2018573752701975     
 Xe  -13.104369081176820       -44.516034989338813       -13.165978671574871     
 Xe  -13.766776746562998        66.680404457753042        11.948246826658993     
 Xe   6.4449572535791377       -7.6803509919963728        1.5732603719022811     
 Xe   6.6589672608831005       -11.245655249678222        5.0394169322890159     
 Xe   12.767221313277727       0.76163677326014412        2.6050545407245718     
           5
 E= -0.34790728032643670      V=  -1.2683778577442080      T=  0.92047057741777127     
 Xe  -13.233971321603937       -44.752077551133318       -13.255609953606914     
 Xe  -13.871591352250585        67.014517639547094        11.998181514346680     
 Xe   6.5128583611022801       -7.7855511645633113        1.4280218869413801     
 Xe   6.6095002633944064       -11.421771296625396        5.2098449694627815     
 Xe   12.983204049357989       0.94488237277473064        2.6195615828560670     
           5
 E= -0.34789127005178999      V=  -1.3718120182107463      T=   1.0239207481589563     
 Xe  -13.363573434161824       -44.988119887573717       -13.345241129910528     
 Xe  -13.976405955530227        67.348630814038216        12.048116201074118     
 Xe   6.5855405763394623       -8.0226053211078749        1.4217876888855154     
 Xe   6.5566184969772703       -11.464098358749599        5.2414271782171848     
 Xe   13.197820316375461        1.1261927533927878        2.6339100617336992     
           5
 E= -0.34949219607656934      V=  -1.7747439963647329      T=   1.4252518002881636     
 Xe  -13.493175422741643       -45.224162006176797       -13.434872203810883     
 Xe  -14.081220556469372        67.682743981482346        12.098050886875367     
 Xe   6.6580910110873672       -8.3857898295673188        1.5570746804414357     
 Xe   6.5049214331558112       -11.378770611929056        5.1316033267251546     
 Xe   13.411383534967985        1.3059784661906439        2.6481433097689182     
           5
 E= -0.34684401394617326      V=  -1.3469376316976192      T=   1.0000936177514459     
 Xe  -13.622777291003342       -45.460203913900529       -13.524503178600158     
 Xe  -14.186035155134098        68.016857142126796        12.147985571784840     
 Xe   6.7362136191728599       -8.7183574132043713        1.6503872694104649     
 Xe   6.4484425946634207       -11.322877397086202        5.0638174212352824     
 Xe   13.624156232301303        1.4845815820641339        2.6623129161695602     
           5
 E= -0.34837345012995669      V=  -1.6543871100886551      T=   1.3060136599586984     
 Xe  -13.752379042502527       -45.696245617569680       -13.614134057398783     
 Xe  -14.290849751587702        68.350970296207521        12.197920255834521     
 Xe   6.8427436259684988       -8.7786793933420189        1.3920257778374228     
 Xe   6.3641659225580032       -11.538294326390071        5.3477424902336388     
 Xe   13.836319245563875        1.6622490410940995        2.6764455334931863     
           5
 E= -0.34789779846227042      V=  -1.2875238894493994      T=  0.93962609098712901     
 Xe  -13.881980680856943       -45.932287124248305       -13.703764843122915     
 Xe  -14.395664345890149        68.685083443948699        12.247854939052338     
 Xe   6.9389317303062494       -8.8901335705457551        1.2113875036266883     
 Xe   6.2907356398653222       -11.701800756041845        5.5539866791922599     
 Xe   14.047977656575672        1.8391380068870558        2.6905357212516194     
           5
 E= -0.34789546534955496      V=  -1.2966691877004473      T=  0.94877372235089230     
 Xe  -14.011582209532955       -46.168328440681385       -13.793395538602258     
 Xe  -14.500478938099576        69.019196585565808        12.297789621465423     
 Xe   7.0114974065583766       -9.1052263196024228        1.1915965199872751     
 Xe   6.2413459553658477       -11.761019827889502        5.5994266790496416     
 Xe   14.259217785708461        2.0153780026073704        2.7045827180999122     
           5
 E= -0.34850827299077336      V=  -1.6759269493938016      T=   1.3274186764030282     
 Xe  -14.141183631720676       -46.404369573047830       -13.883026146575123     
 Xe  -14.605293528272661        69.353309721265987        12.347724303101096     
 Xe   7.0557372104575808       -9.4183620526070086        1.3353713024326015     
 Xe   6.2206217711007596       -11.721662979643995        5.4813342339925448     
 Xe   14.470118178435152        2.1910848840326653        2.7185963070488799     
           5
 E= -0.34600907104231982      V=  -1.2984821125067769      T=  0.95247304146445710     
 Xe  -14.270784950333400       -46.640410526994302       -13.972656669652860     
 Xe  -14.710108116464442        69.687422851247987        12.397658983986453     
 Xe   7.0891646895788476       -9.7685296106364934        1.5415677093609068     
 Xe   6.2109820577725596       -11.644841162120564        5.3008394381763093     
 Xe   14.680746319446595        2.3663584485031635        2.7325905381291893     
           5
 E= -0.34922136009858362      V=  -1.7502388996913338      T=   1.4010175395927502     
 Xe  -14.400386168165928       -46.876451307944066       -14.062287110339330     
 Xe  -14.814922702728108        70.021535975702420        12.447593664147423     
 Xe   7.2176111798880251       -9.9198279590991589        1.3462065237265946     
 Xe   6.1065429151807740       -11.766534657120694        5.5219113789317849     
 Xe   14.891154775825399        2.5412779484612713        2.7465755435335168     
           5
 E= -0.34789086079601572      V=  -1.3404967889323842      T=  0.99260592813636850     
 Xe  -14.529987288187190       -47.112491921609148       -14.151917471145479     
 Xe  -14.919737287114980        70.355649094813472        12.497528343607824     
 Xe   7.3481332989870989       -10.059343196310721        1.1343928377308636     
 Xe   6.0002114597248690       -11.899713398756116        5.7594450667470003     
 Xe   15.101379816590359        2.7158994218622863        2.7605512230597817     
           5
 E= -0.34790558770350177      V=  -1.2542678791583695      T=  0.90636229145486769     
 Xe  -14.659588313312931       -47.348532373581982       -14.241547754523758     
 Xe  -15.024551869674749        70.689762208758381        12.547463022390385     
 Xe   7.4287406053600913       -10.266975568447291        1.0942622220167464     
 Xe   5.9439493703341695       -11.964522104282461        5.8253060399094601     
 Xe   15.311450207293573        2.8902678375531208        2.7745164702071556     
           5
 E= -0.34807182680985016      V=  -1.5529170336105158      T=   1.2048452068006656     
 Xe  -14.789189246202866       -47.584572668990290       -14.331177962762345     
 Xe  -15.129366450455461        71.023875317706697        12.597397700517314     
 Xe   7.4548030621308481       -10.536847653038983        1.2281708034357426     
 Xe   5.9423618878982314       -11.966877544914738        5.7171361935377005     
 Xe   15.521390746629411        3.0644225492371024        2.7884732652715782     
           5
 E= -0.35003664661411382      V=  -1.5458121444770268      T=   1.1957754978629129     
 Xe  -14.918790089263132       -47.820612812506525       -14.420808097961345     
 Xe  -15.234181029503484        71.357988421820380        12.647332378010123     
 Xe   7.4369770317912662       -10.849800797475238        1.4943940494081278     
 Xe   5.9847717876369844       -11.925972180146168        5.4766564228813071     
 Xe   15.731222299338530        3.2383973683073384        2.8024252476617715     
           5
 E= -0.35053980667565954      V=  -1.7604943198352494      T=   1.4099545131595899     
 Xe  -15.048390844752742       -48.056652808528895       -14.510438162090551     
 Xe  -15.338995606863621        71.692101521254742        12.697267054889467     
 Xe   7.5434699307806898       -11.077960950244453        1.4280540790802601     
 Xe   5.9029545838662791       -11.969708171464490        5.5687412828755667     
 Xe   15.940961936969567        3.4122204089828734        2.8163757452452431     
           5
 E= -0.34791204275618659      V=  -1.4217934675984818      T=   1.0738814248422952     
 Xe  -15.177991515056394       -48.292692661646051       -14.600068157223076     
 Xe  -15.443810182579597        72.026214616160672        12.747201731175164     
 Xe   7.7102954362122746       -11.265588887751329        1.2010872245318251     
 Xe   5.7608828042185642       -12.053846997036267        5.8214539175190332     
 Xe   16.150623457205320        3.5859139302727394        2.8303252839970399     
           5
 E= -0.34791046756845367      V=  -1.2384136731831266      T=  0.89050320561467289     
 Xe  -15.307592102589815       -48.528732376480903       -14.689698085473026     
 Xe  -15.548624756693989        72.360327706684146        12.797136406886382     
 Xe   7.8070164047741040       -11.481218804533498        1.1400704867521991     
 Xe   5.6889821376739640       -12.109872703239315        5.9082178807674186     
 Xe   16.360218316835905        3.7594961775693303        2.8442733110670257     
           5
 E= -0.34792415637954499      V=  -1.4408022559139060      T=   1.0928780995343610     
 Xe  -15.437192609588262       -48.764771957320008       -14.779327948781081     
 Xe  -15.653439329247867        72.694440792964954        12.847071082041426     
 Xe   7.8262307806000342       -11.719794506680469        1.2536209415523316     
 Xe   5.6946451838060055       -12.142856993672279        5.8204158396791730     
 Xe   16.569755974430258        3.9329826647075476        2.8582200855081528     
           5
 E= -0.35075218006148723      V=  -1.7430671423333586      T=   1.3923149622718713     
 Xe  -15.566793038101805       -49.000811408092275       -14.868957748880959     
 Xe  -15.758253900280760        73.028553875136865        12.897005756657675     
 Xe   7.7702635981713497       -11.973598586882996        1.5287072545018749     
 Xe   5.7755392171349875       -12.160530345900476        5.5710783040800438     
 Xe   16.779244123076399        4.1063864657386038        2.8721664336413690     
           5
 E= -0.35051704514939175      V=  -1.5971020495089254      T=   1.2465850043595337     
 Xe  -15.696393390052762       -49.236850732463822       -14.958587487347948     
 Xe  -15.863068469830795        73.362666953328315        12.946940430751621     
 Xe   7.8098259019665672       -12.224832989147391        1.6173661628365199     
 Xe   5.7609469068309274       -12.180701765218862        5.5081676202959882     
 Xe   16.988689051086233        4.2797185335014962        2.8861132734638177     
           5
 E= -0.34802691761428273      V=  -1.5276505564703045      T=   1.1796236388560217     
 Xe  -15.825993667385152       -49.472889934152498       -15.048217165840629     
 Xe  -15.967883037935247        73.696780027663578        12.996875104339445     
 Xe   8.0039822323125271       -12.473699042358234        1.4062333843593968     
 Xe   5.5917981415578888       -12.203179313767667        5.7450477839479515     
 Xe   17.198096331450159        4.4529882626145518        2.9000608931938339     
           5
 E= -0.34790716651289200      V=  -1.2470534355819507      T=  0.89914626906905870     
 Xe  -15.955593872071219       -49.708929016967893       -15.137846786147186     
 Xe  -16.072697604630626        74.030893098262936        13.046809777437202     
 Xe   8.1225851521901724       -12.713217823501065        1.3301064323358012     
 Xe   5.4982352886346249       -12.234950123000718        5.8469214937173444     
 Xe   17.407471035877236        4.6262038652064437        2.9140090826568423     
           5
 E= -0.34789156289815959      V=  -1.3518828407654584      T=   1.0039912778672988     
 Xe  -16.085194005986139       -49.944967984507372       -15.227476349925126     
 Xe  -16.177512169952251        74.365006165242150        13.096744450060147     
 Xe   8.1448313237152643       -12.935179036362531        1.4198882218611306     
 Xe   5.5010575117489786       -12.284231396570727        5.7828858865504005     
 Xe   17.616817340474334        4.7993722521981832        2.9279577914534576     
           5
 E= -0.34946501119189533      V=  -1.7589401040813262      T=   1.4094750928894308     
 Xe  -16.214794070904773       -50.181006840107180       -15.317105858642879     
 Xe  -16.282326733934124        74.699119228712675        13.146679122222578     
 Xe   8.0692042181097072       -13.133039425228386        1.6712418832648899     
 Xe   5.6017780049272545       -12.357572099280622        5.5572777189208473     
 Xe   17.826138581802116        4.9724991359032309        2.9419071342345724     
           5
 E= -0.34675059779503314      V=  -1.3298652952869743      T=  0.98311469749194114     
 Xe  -16.344394068531699       -50.417045586890119       -15.406735313611858     
 Xe  -16.387141296609105        75.033232288782173        13.196613793937935     
 Xe   8.0207363065258992       -13.343507800650405        1.8843778245936047     
 Xe   5.6753615987622084       -12.418268156318833        5.3698864174654144     
 Xe   18.035437459852879        5.1455892550769011        2.9558572776149097     
           5
 E= -0.34838577095057688      V=  -1.6468421392288113      T=   1.2984563682782344     
 Xe  -16.473994000531093       -50.653084227933157       -15.496364716159599     
 Xe  -16.491955858009202        75.367345345554412        13.246548465219355     
 Xe   8.2151671588984065       -13.647525254567698        1.7340603919178965     
 Xe   5.5060662939153815       -12.385382661332399        5.5459475736227137     
 Xe   18.244716405726685        5.3186467982785572        2.9698082853996377     
           5
 E= -0.34789762803176616      V=  -1.2799648583174736      T=  0.93206723028570748     
 Xe  -16.603593868517052       -50.889122766380353       -15.585994067762440     
 Xe  -16.596770418165768        75.701458399128910        13.296483136080134     
 Xe   8.3575445089545859       -13.925422595546644        1.6549512983318118     
 Xe   5.3888419764136088       -12.378588740365426        5.6507995524936803     
 Xe   18.453977801314810        5.4916757031632288        2.9837600808568245     
           5
 E= -0.34789572785960254      V=  -1.2887240815030130      T=  0.94082835364341044     
 Xe  -16.733193674053236       -51.125161205257328       -15.675623369831813     
 Xe  -16.701584977109246        76.035571449601662        13.346417806533029     
 Xe   8.3899905006127415       -14.146066884644828        1.7238683596357163     
 Xe   5.3815644685464701       -12.429022709411900        5.6076246045399909     
 Xe   18.663223682003455        5.6646793497121024        2.9977125991230889     
           5
 E= -0.34849801416366599      V=  -1.6681205783723361      T=   1.3196225642086701     
 Xe  -16.862793418679573       -51.361199547410060       -15.765252623632204     
 Xe  -16.806399534869090        76.369684497066061        13.396352476589984     
 Xe   8.3108522624013261       -14.302968057416434        1.9367994487085749     
 Xe   5.4858849972642743       -12.543177404984505        5.4204348915471616     
 Xe   18.872455693883246        5.8376605127446499        3.0116658067864948     
           5
 E= -0.34605915641872786      V=  -1.2957113602374410      T=  0.94965220381871318     
 Xe  -16.992393103930191       -51.597237795527356       -15.854881830300457     
 Xe  -16.911214091473884        76.703797541613085        13.446287146262216     
 Xe   8.1882618521744401       -14.434818976505381        2.2055716933965126     
 Xe   5.6336701574413608       -12.682362249734693        5.1774033119051390     
 Xe   19.081675185788459        6.0106214801540467        3.0256196787365983     
           5
 E= -0.34923975540513807      V=  -1.7470383311310456      T=   1.3977985757259075     
 Xe  -17.121992731302637       -51.833275952214855       -15.944510990939751     
 Xe  -17.016028646951426        77.037910583330756        13.496221815560560     
 Xe   8.3381284582257269       -14.755010999943758        2.1589958943794092     
 Xe   5.5090095697665848       -12.633187892830948        5.2497191001491998     
 Xe   19.290883350261939        6.1835642616585353        3.0395741808505967     
           5
 E= -0.34789090725493832      V=  -1.3378716670896478      T=  0.98998075983470946     
 Xe  -17.251592302161285       -52.069314020091007       -16.034140106753604     
 Xe  -17.120843201328771        77.372023622302194        13.546156484495954     
 Xe   8.5006064416495004       -15.081355062083643        2.0949988528785393     
 Xe   5.3717477009294736       -12.577845366386775        5.3394554976313513     
 Xe   19.500081360911267        6.3564908262589670        3.0535292717477684     
           5
 E= -0.34790574629651949      V=  -1.2507202928063794      T=  0.90281454650985993     
 Xe  -17.381191817809100       -52.305352001708442       -16.123769178932164     
 Xe  -17.225657754632209        77.706136658607306        13.596091153079035     
 Xe   8.5469742873964023       -15.314783130655467        2.1514035335120272     
 Xe   5.3506050159542893       -12.615404463495485        5.3087895810300942     
 Xe   19.709270269090812        6.5294029372518523        3.0674849113110163     
           5
 E= -0.34806831851565279      V=  -1.5484817059867073      T=   1.2004133874710545     
 Xe  -17.510791279575773       -52.541389899499649       -16.213398208570268     
 Xe  -17.330472306887362        78.040249692324423        13.646025821319864     
 Xe   8.4757870851080739       -15.448892439263728        2.3238966590251255     
 Xe   5.4470255417549671       -12.752269412775995        5.1620346726043920     
 Xe   19.918450959600282        6.7023020592147011        3.0814410556208927     
           5
 E= -0.35007753000179576      V=  -1.5473305596972871      T=   1.1972530296954913     
 Xe  -17.640390688833829       -52.777427715785102       -16.303027196677498     
 Xe  -17.435286858119209        78.374362723530780        13.695960489227971     
 Xe   8.3149144543070044       -15.503949957022174        2.5813269206954987     
 Xe   5.6331389056551320       -12.968174461146585        4.9303421324136396     
 Xe   20.127624186991092        6.8751894104228537        3.0953976543403918     
           5
 E= -0.35055684646460405      V=  -1.7575032595450997      T=   1.4069464130804956     
 Xe  -17.769990046957368       -53.013465452802244       -16.392656144218957     
 Xe  -17.540101408352140        78.708475752301638        13.745895156812553     
 Xe   8.3766291672107460       -15.773494990158927        2.6482489825629445     
 Xe   5.5966716693042970       -12.969581358744328        4.8891573491875047     
 Xe   20.336790618794659        7.0480660494036265        3.1093546556559666     
           5
 E= -0.34791280807338798      V=  -1.4213539087508886      T=   1.0734411006775006     
 Xe  -17.899589355159918       -53.249503112761801       -16.482285052190203     
 Xe  -17.644915957609701        79.042588778707611        13.795829824082650     
 Xe   8.5478588993735691       -16.148957376615144        2.6218725634531430     
 Xe   5.4506955376907946       -12.865061294560983        4.9412706393590042     
 Xe   20.545950875705458        7.2209330052300835        3.1233120252954176     
           5
 E= -0.34791050152193936      V=  -1.2368167492570834      T=  0.88890624773514404     
 Xe  -18.029188614543369       -53.485540697829975       -16.571913921586265     
 Xe  -17.749730505914680        79.376701802815489        13.845764491047110     
 Xe   8.6079703685223858       -16.406411287376116        2.6785072901087066     
 Xe   5.4158432318225858       -12.878541054687851        4.9103724010367262     
 Xe   20.755105520113300        7.3937912370782319        3.1372697393937337     
           5
 E= -0.34792319485459977      V=  -1.4380195530317648      T=   1.0900963581771650     
 Xe  -18.158787826251441       -53.721578210090058       -16.661542753352833     
 Xe  -17.854545053289389        79.710814824691212        13.895699157714422     
 Xe   8.5512220365352025       -16.534705925411906        2.8168459126290606     
 Xe   5.4978557917713609       -13.021172253749508        4.7977699153751203     
 Xe   20.964255051234481        7.5666415645600402        3.1512277676342411     
           5
 E= -0.35073920575781248      V=  -1.7432672955273594      T=   1.3925280897695469     
 Xe  -18.288386991494466       -53.957615651541758       -16.751171548391895     
 Xe  -17.959359599755739        80.044927844400249        13.945633824092777     
 Xe   8.3863329726391562       -16.538800091683289        3.0256127719281483     
 Xe   5.6880136991350181       -13.287996787402758        4.6147388793644311     
 Xe   21.173399919476239        7.7394846862273656        3.1651860730065513     
           5
 E= -0.35048947721949775      V=  -1.5924625749233341      T=   1.2419730977038363     
 Xe  -18.417986111518115       -54.193653024112095       -16.840800307576590     
 Xe  -18.064174145335198        80.379040862007102        13.995568490190124     
 Xe   8.3442683553809722       -16.695607829031552        3.1672991938265858     
 Xe   5.7553513650797932       -13.402101221734750        4.4987880070369748     
 Xe   21.382540536392767        7.9123212128711140        3.1791446165229131     
           5
 E= -0.34802978694078979      V=  -1.5283342545841494      T=   1.1803044676433596     
 Xe  -18.547585187441250       -54.429690329687467       -16.930429031764007     
 Xe  -18.168988690048483        80.713153877572523        14.045503156014137     
 Xe   8.5031099032046527       -17.103538325319867        3.2007250123166262     
 Xe   5.6217867093974530       -13.265076939735618        4.4910974931818366     
 Xe   21.591677264887853        8.0851517171702518        3.1931033702514218     
           5
 E= -0.34790708028398765      V=  -1.2465146415851418      T=  0.89860756130115416     
 Xe  -18.677184220226582       -54.665727570121064       -17.020057721788916     
 Xe  -18.273803233915455        81.047266891153015        14.095437821572176     
 Xe   8.5726394820589409       -17.391772244120261        3.2733599958861404     
 Xe   5.5775375550024595       -13.247743814557422        4.4441975870149424     
 Xe   21.800810417080857        8.2579767376455493        3.2070623173156729     
           5
 E= -0.34789148808483472      V=  -1.3500709626557139      T=   1.0021794745708792     
 Xe  -18.806783210861102       -54.901764747203678       -17.109686378464854     
 Xe  -18.378617776955572        81.381379902804127        14.145372486871404     
 Xe   8.5321460899762940       -17.527805315676485        3.3890391289850403     
 Xe   5.6433146159621073       -13.382606590790529        4.3542533236597771     
 Xe   22.009940281878482        8.4307967508663300        3.2210214389486547     
           5
 E= -0.34944706323918862      V=  -1.7575058262327476      T=   1.4080587629935590     
 Xe  -18.936382160398239       -55.137801862656410       -17.199315002593430     
 Xe  -18.483432319188061        81.715492912581382        14.195307151918863     
 Xe   8.3846520031146419       -17.510321002758886        3.5404935014126666     
 Xe   5.8160953404250275       -13.670982224443007        4.2285336357370538     
 Xe   22.219067136046846        8.6036121772766805        3.2349807135248643     
           5
 E= -0.34669218355623044      V=  -1.3263213661814397      T=  0.97962918262520926     
 Xe  -19.065981069938069       -55.373838918134275       -17.288943594969005     
 Xe  -18.588246860631845        82.049605920539904        14.245241816721494     
 Xe   8.2611409670510003       -17.532595818128872        3.6898563858143536     
 Xe   5.9648957189501122       -13.919594577717858        4.1049052734814309     
 Xe   22.428191244569039        8.7764233934408793        3.2489401189517357     
           5
 E= -0.34839376528789900      V=  -1.6479755783799535      T=   1.2995818130920544     
 Xe  -19.195579940511521       -55.609875915250498       -17.378572156359219     
 Xe  -18.693061401305272        82.383718926732158        14.295176481285983     
 Xe   8.3776626671204806       -17.930296561394353        3.7933444645927645     
 Xe   5.8736658343048287       -13.792777193243618        4.0271515734830174     
 Xe   22.637312840391722        8.9492307431560096        3.2628996369974650     
           5
 E= -0.34789748798274600      V=  -1.2801315237123390      T=  0.93223403572959296     
 Xe  -19.325178772991038       -55.845912855600808       -17.468200687479882     
 Xe  -18.797875941225776        82.717831931206618        14.345111145618537     
 Xe   8.4481066603183219       -18.249834973953863        3.8988959638606264     
 Xe   5.8285159462624181       -13.744118641815319        3.9473343234868556     
 Xe   22.846432107636314        9.1220345401630265        3.2768592545138766     
           5
 E= -0.34789587864156457      V=  -1.2875781680378255      T=  0.93968228939626097     
 Xe  -19.454777568239187       -56.081949740732959       -17.557829189031317     
 Xe  -18.902690480410389        83.051944934010436        14.395045809725191     
 Xe   8.4214966003188927       -18.402487167823065        4.0062972142361932     
 Xe   5.8804222316684962       -13.862343094354845        3.8656672058148827     
 Xe   23.055549216662431        9.2948350689001131        3.2908189592550627     
           5
 E= -0.34848866607350648      V=  -1.6660932343002746      T=   1.3176045682267681     
 Xe  -19.584376327167266       -56.317986572129762       -17.647457661719930     
 Xe  -19.007505018875971        83.386057935190564        14.444980473611999     
 Xe   8.3006729424702961       -18.386756436453947        4.1084300181398428     
 Xe   6.0265440643003831       -14.148947516452457        3.7892684303664725     
 Xe   23.264664339272802        9.4676325898452589        3.3047787396016322     
           5
 E= -0.34610645345764046      V=  -1.2976096241930357      T=  0.95150317073539525     
 Xe  -19.713975050723757       -56.554023351208627       -17.737086106259611     
 Xe  -19.112319556639189        83.720170934793842        14.494915137285014     
 Xe   8.1426889274572485       -18.304275053946178        4.2081141625697276     
 Xe   6.2098280326459872       -14.502299873396522        3.7153182209370685     
 Xe   23.473777647259961        9.6404273437571302        3.3187385854678157     
           5
 E= -0.34925651368965149      V=  -1.7477213784552463      T=   1.3984648647655948     
 Xe  -19.843573739831214       -56.790060079343348       -17.826714523347754     
 Xe  -19.217134093716300        84.054283932865644        14.544849800750121     
 Xe   8.1893832211573354       -18.626376583111409        4.3621726603976594     
 Xe   6.1884353150064699       -14.451066821107407        3.5869935740085914     
 Xe   23.682889297383966        9.8132195506961484        3.3326984881913990     
           5
 E= -0.34789092980255809      V=  -1.3385957781780029      T=  0.99070484837544481     
 Xe  -19.973172395294320       -57.026096757908562       -17.916342913618301     
 Xe  -19.321948630122730        84.388396929447936        14.594784464012685     
 Xe   8.2483816010116104       -18.969459561558928        4.5158044210013024     
 Xe   6.1547400168061976       -14.378850013069158        3.4590955900914140     
 Xe   23.891999407599506        9.9860094030883459        3.3466584385129110     
           5
 E= -0.34790587011778584      V=  -1.2500882472628161      T=  0.90218237714503025     
 Xe  -20.102771017880823       -57.262133388249154       -18.005971277680000     
 Xe  -19.426763165873457        84.722509924580805        14.644719127077829     
 Xe   8.2296965080072990       -19.142203557986516        4.6302216262743645     
 Xe   6.1987295945644805       -14.476970053133460        3.3704120966919682     
 Xe   24.101108081182765        10.158797074787966        3.3606184276358513     
           5
 E= -0.34806477587923279      V=  -1.5465364784521793      T=   1.1984717025729466     
 Xe  -20.232369608380957       -57.498169971646888       -18.095599616152104     
 Xe  -19.531577700983288        85.056622918304299        14.694653789950733     
 Xe   8.1363487780585224       -19.143390980515250        4.6982686815580106     
 Xe   6.3173831059400962       -14.746644696219160        3.3280986954681344     
 Xe   24.310215425365893        10.331582730076672        3.3745784491752415     
           5
 E= -0.35011778480027500      V=  -1.5510518487651099      T=   1.2009340639648349     
 Xe  -20.361968167601745       -57.734206509316444       -18.185227929665601     
 Xe  -19.636392235466865        85.390735910658037        14.744588452636638     
 Xe   7.9882923656963118       -19.013661397898055        4.7265714203421458     
 Xe   6.4907464866832534       -15.147234528770060        3.3255295572007344     
 Xe   24.519321550689316        10.504366525326173        3.3885384994860921     
           5
 E= -0.35057375398707968      V=  -1.7563183187833382      T=   1.4057445647962585     
 Xe  -20.491566696339561       -57.970243002422812       -18.274856218846487     
 Xe  -19.741206769338554        85.724848901681014        14.794523115140731     
 Xe   7.9607232671749619       -19.202266486000294        4.8756300247534305     
 Xe   6.5436236357601612       -15.229488019615093        3.2022045025216448     
 Xe   24.728426562743266        10.677148606356875        3.4024985764306956     
           5
 E= -0.34791358317341570      V=  -1.4225536703684631      T=   1.0746400871950474     
 Xe  -20.621165195327457       -58.206279452141871       -18.364484484268615     
 Xe  -19.846021302612083        86.058961891409496        14.844457777467726     
 Xe   7.9932302108819711       -19.550377419226411        5.0857640711035410     
 Xe   6.5364257445884908       -15.152234118196219        3.0178039606695481     
 Xe   24.937530542469361        10.849929098154670        3.4164586750278092     
           5
 E= -0.34791051371829795      V=  -1.2366197760805986      T=  0.88870926236230063     
 Xe  -20.750763665258901       -58.442315859645326       -18.454112726470626     
 Xe  -19.950835835300673        86.393074879878085        14.894392439622033     
 Xe   7.9736676470318031       -19.740885498601948        5.2215392649924999     
 Xe   6.5812982981308510       -15.232581631871593        2.9077622330673236     
 Xe   25.146633555397202        11.022708110240391        3.4304187887887760     
           5
 E= -0.34792220504458360      V=  -1.4364213237844934      T=   1.0884991187399098     
 Xe  -20.880362106825135       -58.678352226046144       -18.543740945995971     
 Xe  -20.055650367417350        86.727187867120989        14.944327101608083     
 Xe   7.9031339976381503       -19.766349271311242        5.2726064298338926     
 Xe   6.6771428074140449       -15.477972117540471        2.8824285007753261     
 Xe   25.355735669190580        11.195485747776557        3.4443789137786736     
           5
 E= -0.35072545764618179      V=  -1.7445431962915092      T=   1.3938177386453274     
 Xe  -21.009960520712166       -58.914388552389568       -18.633369143395594     
 Xe  -20.160464898974993        87.061300853171730        14.994261763430387     
 Xe   7.7889428566915360       -19.639695403752736        5.2392149118729625     
 Xe   6.8166456085287486       -15.875479010027734        2.9415534190424846     
 Xe   25.564836954467150        11.368262112997961        3.4583390490497590     
           5
 E= -0.35046005576661043      V=  -1.5886299733172364      T=   1.2381699175506260     
 Xe  -21.139558907590864       -59.150424839664680       -18.722997319218603     
 Xe  -20.265279429986251        87.395413838063519        15.044196425093455     
 Xe   7.7148473026717586       -19.681429164115087        5.3151415645705402     
 Xe   6.9160535540436472       -16.104597137658310        2.8913601340005783     
 Xe   25.773937480861985        11.541037303374232        3.4722991955540206     
           5
 E= -0.34803277573106062      V=  -1.5298934378762563      T=   1.1818606621451957     
 Xe  -21.269157268107364       -59.386461088867428       -18.812625473982926     
 Xe  -20.370093960463326        87.729526821827776        15.094131086601488     
 Xe   7.7065316861298330       -20.003333426468579        5.5747490335396481     
 Xe   6.9496822371436497       -16.053543710093155        2.6574860019736111     
 Xe   25.983037305297497        11.713811403601092        3.4862593518681684     
           5
 E= -0.34790697583769203      V=  -1.2467158774209994      T=  0.89880890158330740     
 Xe  -21.398755602888826       -59.622497301015727       -18.902253608173499     
 Xe  -20.474908490417938        88.063639804494457        15.144065747958317     
 Xe   7.6753954859549678       -20.203387549611406        5.7433451923422529     
 Xe   7.0061321355878050       -16.124339439288828        2.5146231543011766     
 Xe   26.192136471764297        11.886584485421245        3.5002195135717451     
           5
 E= -0.34789140644809669      V=  -1.3488827927628229      T=   1.0009913863147262     
 Xe  -21.528353912545821       -59.858533477080016       -18.991881722270755     
 Xe  -20.579723019861603        88.397752786092752        15.194000409167758     
 Xe   7.6196481443558834       -20.253578148417152        5.7933626358329340     
 Xe   7.0871937641581511       -16.344997777958255        2.4903389993462661     
 Xe   26.401235023893697        12.059356617362390        3.5141796779237837     
           5
 E= -0.34942882966100641      V=  -1.7566070084200589      T=   1.4071781787590525     
 Xe  -21.657952197666461       -60.094569617965085       -19.081509816753687     
 Xe  -20.684537548805643        88.731865766651410        15.243935070233679     
 Xe   7.5441598327224870       -20.158962463880798        5.7210370401345578     
 Xe   7.1879969068936456       -16.710461551471710        2.5883978616183185     
 Xe   26.610333006856269        12.232127866665898        3.5281398447671175     
           5
 E= -0.34663324328895107      V=  -1.3232763351461256      T=  0.97664309185717457     
 Xe  -21.787550458813239       -60.330605724517021       -19.171137892094841     
 Xe  -20.789352077261167        89.065978746198468        15.293869731159951     
 Xe   7.4688651348634014       -20.094277525614874        5.6814717391671534     
 Xe   7.2886069355807734       -17.045993794366090        2.6536964059566666     
 Xe   26.819430465630532        12.404898298299225        3.5421000158110565     
           5
 E= -0.34840202880873106      V=  -1.6495943162766089      T=   1.3011922874678779     
 Xe  -21.917148696537055       -60.566641797574889       -19.260765948750912     
 Xe  -20.894166605238993        89.400091724761026        15.343804391950277     
 Xe   7.4141308759595601       -20.349313355715893        5.9562971945971768     
 Xe   7.3686569861757718       -17.061804542022561        2.4046041705056558     
 Xe   27.028527439641028        12.577667970552023        3.5560601916977914     
           5
 E= -0.34789733655873689      V=  -1.2807203832781133      T=  0.93282304671937644     
 Xe  -22.046746911396376       -60.802677838015640       -19.350393987160743     
 Xe  -20.998981132749556        89.734204702364991        15.393739052608035     
 Xe   7.3601345472375792       -20.545075302659725        6.1640913131739294     
 Xe   7.4479695371397314       -17.136888494025651        2.2225432514714143     
 Xe   27.237623959768918        12.750436932335740        3.5700203699073536     
           5
 E= -0.34789602489831117      V=  -1.2867903517749717      T=  0.93889432687666052     
 Xe  -22.176345103933230       -61.038713846686989       -19.440022007753203     
 Xe  -21.103795659803030        90.068317679035573        15.443673713136539     
 Xe   7.3093550012128237       -20.614541673148384        6.2258990246085997     
 Xe   7.5240657074757413       -17.338267388560155        2.1864687215536440     
 Xe   27.446720055047994        12.923205229359684        3.5839805484544178     
           5
 E= -0.34847931947380495      V=  -1.6643673535766612      T=   1.3158880341028563     
 Xe  -22.305943274657963       -61.274749824376954       -19.529650010946124     
 Xe  -21.208610186409413        90.402430654797300        15.493608373539104     
 Xe   7.2665731936314550       -20.562556439229244        6.1378915394789129     
 Xe   7.5921645126856845       -17.661097297499822        2.3002093706818267     
 Xe   27.655815754750552        13.095972906308477        3.5979407272462827     
           5
 E= -0.34615550452279398      V=  -1.2998927462593217      T=  0.95373724173652774     
 Xe  -22.435541424048143       -61.510785771817169       -19.619277997143154     
 Xe  -21.313424712578488        90.736543629674088        15.543543033819038     
 Xe   7.2273127258983418       -20.461915144321988        5.9892552694218875     
 Xe   7.6567423230194267       -18.032582719942781        2.4745787862202966     
 Xe   27.864911087709174        13.268740006407626        3.6119009076819415     
           5
 E= -0.34927359025532634      V=  -1.7486623903712089      T=   1.3993888001158825     
 Xe  -22.565139552566627       -61.746821689717578       -19.708905966736118     
 Xe  -21.418239238319799        91.070656603689088        15.593477693979551     
 Xe   7.1411000436724867       -20.617687276554094        6.2147162577864563     
 Xe   7.7682726668035693       -18.147654206997753        2.2748509239132715     
 Xe   28.074006080410680        13.441506569580124        3.6258610910568474     
           5
 E= -0.34789095282960458      V=  -1.3395741288170675      T=  0.99168317598746292     
 Xe  -22.694737660698252       -61.982857578826284       -19.798533920116999     
 Xe  -21.523053763642611        91.404769576864709        15.643412354023631     
 Xe   7.0543628009238093       -20.790593958881686        6.4601531620462200     
 Xe   7.8803278685563676       -18.245590669246756        2.0551471277214937     
 Xe   28.283100754860996        13.614272630089776        3.6398212763256650     
           5
 E= -0.34790598879772927      V=  -1.2496755310823451      T=  0.90176954228461581     
 Xe  -22.824335748922628       -62.218893439882876       -19.888161857671122     
 Xe  -21.627868288555966        91.738882549222737        15.693347013954174     
 Xe   6.9982738153826762       -20.869084168740514        6.5421586673399652     
 Xe   7.9617350910538986       -18.437943159863501        1.9988747142477878     
 Xe   28.492195131042326        13.787038219263914        3.6537814621292046     
           5
 E= -0.34806127051396074      V=  -1.5447815213873901      T=   1.1967202508734294     
 Xe  -22.953933817687044       -62.454929273576823       -19.977789779765779     
 Xe  -21.732682813068696        92.072995520784303        15.743281673774041     
 Xe   6.9776388091936301       -20.858218686443237        6.4570964372304731     
 Xe   8.0076885931867228       -18.719650928049834        2.1096700204732914     
 Xe   28.701289228375693        13.959803367285371        3.6677416482879854     
           5
 E= -0.35015722860170273      V=  -1.5549484951480304      T=   1.2047912665463276     
 Xe  -23.083531867405163       -62.690965080547159       -20.067417686747284     
 Xe  -21.837497337189422        92.407108491569844        15.793216333486050     
 Xe   6.9871161173413556       -20.782529096363270        6.2423904068725644     
 Xe   8.0235300217290622       -19.066182417738421        2.3501091107477392     
 Xe   28.910383065524471        14.132568103078802        3.6817018356409505     
           5
 E= -0.35059050203303621      V=  -1.7552526835028299      T=   1.4046621814697937     
 Xe  -23.213129898470307       -62.927000861402760       -20.157045578946668     
 Xe  -21.942311860926573        92.741221461599181        15.843150993092944     
 Xe   6.9081417086370518       -20.842767539843191        6.3481871389037057     
 Xe   8.1278233908608684       -19.276785514079371        2.2700454216473966     
 Xe   29.119476659899274        14.305332453725935        3.6956620253026502     
           5
 E= -0.34791437709064943      V=  -1.4239113474543938      T=   1.0759969703637444     
 Xe  -23.342727911294947       -63.163036616778129       -20.246673456705114     
 Xe  -22.047126384288376        93.075334430891630        15.893085652597357     
 Xe   6.7836021652993450       -20.971881990640217        6.6178194986641961     
 Xe   8.2776821032961667       -19.418512266878750        2.0261460883448827     
 Xe   29.328570026988103        14.478096443405237        3.7096222170987119     
           5
 E= -0.34791052145967161      V=  -1.2365632592230285      T=  0.88865273776335685     
 Xe  -23.472325906298643       -63.399072347316014       -20.336301320368023     
 Xe  -22.151940907282857        93.409447399466004        15.943020312001824     
 Xe   6.7127196324123952       -21.045610989733269        6.7229947119449740     
 Xe   8.3738840002740691       -19.615624156552379        1.9467038862095811     
 Xe   29.537663180895319        14.650860094135421        3.7235824102116855     
           5
 E= -0.34792123468579916      V=  -1.4349505492008676      T=   1.0870293145150685     
 Xe  -23.601923883875017       -63.635108053621067       -20.425929170260751     
 Xe  -22.256755429917835        93.743560367340564        15.992954971308823     
 Xe   6.7026518276031366       -21.066992214848305        6.6533156108680922     
 Xe   8.4092713513104762       -19.865083525605584        2.0421159836612914     
 Xe   29.746756134879529        14.823623426734162        3.7375426044225875     
           5
 E= -0.35071135612478432      V=  -1.7458914790086533      T=   1.3951801228838689     
 Xe  -23.731521844388826       -63.871143736255561       -20.515557006683927     
 Xe  -22.361569952200959        94.077673334532861        16.042889630520776     
 Xe   6.7529832316920615       -21.045419712293825        6.4199797567380035     
 Xe   8.3842596635768309       -20.157496346821869        2.3011848193101461     
 Xe   29.955848901321165        14.996386460838131        3.7515028001150519     
           5
 E= -0.35042961621277446      V=  -1.5848722691359127      T=   1.2344426529231383     
 Xe  -23.861119788183736       -64.107179395750151       -20.605184829918333     
 Xe  -22.466384474139666        94.411786301060076        16.092824289640014     
 Xe   6.7269025033434424       -21.057602642386581        6.3709016469988438     
 Xe   8.4356602673050993       -20.416153477716328        2.3759958953210849     
 Xe   30.164941491675151        15.169149214792750        3.7654629979584331     
           5
 E= -0.34803581326893251      V=  -1.5315509181309985      T=   1.1835151048620660     
 Xe  -23.990717715610646       -64.343215032644693       -20.694812640253673     
 Xe  -22.571198995741234        94.745899266938750        16.142758948668824     
 Xe   6.5702127732887412       -21.125501772941764        6.6345768382772343     
 Xe   8.6176700214529216       -20.619094166897138        2.1380536552052463     
 Xe   30.374033916610500        15.341911705544582        3.7794231981024073     
           5
 E= -0.34790686875058274      V=  -1.2470098595006041      T=  0.89910299075002131     
 Xe  -24.120315627031601       -64.579250647495229       -20.784440437995610     
 Xe  -22.676013517012805        95.080012232185169        16.192693607609435     
 Xe   6.4771340244242381       -21.178701251989139        6.7596970964076872     
 Xe   8.7360689334413539       -20.836734281528905        2.0386663338368347     
 Xe   30.583126186179108        15.514673948827820        3.7933834001416966     
           5
 E= -0.34789133064445188      V=  -1.3477820834557304      T=  0.99989075281127848     
 Xe  -24.249913522792244       -64.815286240832364       -20.874068223433415     
 Xe  -22.780828037961321        95.414125196815036        16.242628266464006     
 Xe   6.4670271112450903       -21.219298405710148        6.7113655123892251     
 Xe   8.7714961398352624       -21.066976509591054        2.1127308406938221     
 Xe   30.792218309673515        15.687435959318201        3.8073436038864132     
           5
 E= -0.34941073372600839      V=  -1.7557623031562981      T=   1.4063515694302897     
 Xe  -24.379511403217393       -65.051321813152782       -20.963695996831476     
 Xe  -22.885642558593567        95.748238160843684        16.292562925234613     
 Xe   6.5422961784387379       -21.254229639349465        6.4926387514337369     
 Xe   8.7215474877982686       -21.302884458968979        2.3571905107160260     
 Xe   31.001310295574271        15.860197750627234        3.8213038094471488     
           5
 E= -0.34657520571899902      V=  -1.3203607428994957      T=  0.97378553718049665     
 Xe  -24.509109268615518       -65.287357364924773       -21.053323758432473     
 Xe  -22.990457078916151        96.082351124285907        16.342497583923272     
 Xe   6.5959437680676691       -21.284120226465969        6.3098966664572798     
 Xe   8.6932204278559979       -21.543832868228638        2.5656654909462735     
 Xe   31.210402151608321        16.032959335333196        3.8352640171056946     
           5
 E= -0.34841038604351438      V=  -1.6512702088545974      T=   1.3028598228110830     
 Xe  -24.638707119292174       -65.523392896612847       -21.142951508480486     
 Xe  -23.095271598935501        96.416464087156044        16.392432242531935     
 Xe   6.4312343690299398       -21.289316477915982        6.5195800520441516     
 Xe   8.8832504641364558       -21.809475437856950        2.3817149868999032     
 Xe   31.419493885061605        16.205720725229440        3.8492242270045427     
           5
 E= -0.34789718528353719      V=  -1.2813719955275154      T=  0.93347481024397816     
 Xe  -24.768304955557909       -65.759428408696948       -21.232579247240857     
 Xe  -23.200086118657968        96.750577049468205        16.442366901062549     
 Xe   6.3121068024340845       -21.306293489535150        6.6546796913733131     
 Xe   9.0276987687132895       -22.063337082851223        2.2723482158194890     
 Xe   31.628585503068830        16.378481931614846        3.8631844389855488     
           5
 E= -0.34789617132291761      V=  -1.2860632566861432      T=  0.93816708536322557     
 Xe  -24.897902777714542       -65.995463901642651       -21.322206974970150     
 Xe  -23.304900638089730        97.084690011235949        16.492301559516996     
 Xe   6.2935721587568523       -21.351265568627127        6.6273929818047925     
 Xe   9.0715542447864710       -22.289203505995797        2.3253677807278934     
 Xe   31.837677012261281        16.551242965029363        3.8771446529205149     
           5
 E= -0.34847010398399481      V=  -1.6626895955124259      T=   1.3142194915284311     
 Xe  -25.027500586051961       -66.231499375889427       -21.411834691903067     
 Xe  -23.409715157236807        97.418802972472548        16.542236217897088     
 Xe   6.3780557577410404       -21.431065314500351        6.4406209825349645     
 Xe   9.0123915669166728       -22.480242117210352        2.5378726226777903     
 Xe   32.046768418631409        16.724003835127320        3.8911048687932777     
           5
 E= -0.34620565938487169      V=  -1.3022850355831470      T=  0.95607937619827532     
 Xe  -25.157098380850798       -66.467534831853101       -21.501462398254180     
 Xe  -23.514529676105091        97.752915933190948        16.592170876204563     
 Xe   6.5049717382788756       -21.525651348789687        6.1886465913838133     
 Xe   8.9107965910807856       -22.656494303281303        2.8155798440154172     
 Xe   32.255859727596587        16.896764550732907        3.9050650866504357     
           5
 E= -0.34929075994796333      V=  -1.7496259257005571      T=   1.4003351657525938     
 Xe  -25.286696162385802       -66.703570269938893       -21.591090094232325     
 Xe  -23.619344194700304        98.087028893403655        16.642105534441100     
 Xe   6.3762949153450776       -21.498402873798462        6.2931481322057827     
 Xe   9.0647944975194807       -22.954580869761472        2.7368111210678405     
 Xe   32.464950944221897        17.069525120094944        3.9190253065176468     
           5
 E= -0.34789098122778483      V=  -1.3405959563268171      T=  0.99270497509903222     
 Xe  -25.416293930926287       -66.939605690561763       -21.680717780064228     
 Xe  -23.724158713028093        98.421141853122805        16.692040192608385     
 Xe   6.2326998325026759       -21.466612555871816        6.4213004491720840     
 Xe   9.2337107379108865       -23.257209157996162        2.6343916099498017     
 Xe   32.674042073541159        17.242285551306697        3.9329855283340036     
           5
 E= -0.34790610596901628      V=  -1.2493054950037088      T=  0.90139938903469252     
 Xe  -25.545891686734837       -67.175641094130427       -21.770345455975754     
 Xe  -23.828973231093933        98.755254812360249        16.741974850708061     
 Xe   6.2004305654359797       -21.501252826517849        6.4089804391568075     
 Xe   9.2913012320692268       -23.493406743742966        2.6724444140832651     
 Xe   32.883133120323905        17.415045852030758        3.9469457520276712     
           5
 E= -0.34805782599142154      V=  -1.5430660528948847      T=   1.1950082269034632     
 Xe  -25.675489430069433       -67.411676481033965       -21.859973122176022     
 Xe  -23.933787748903189        99.089367771127542        16.791909508741707     
 Xe   6.2818064757119165       -21.609173473260519        6.2593118810623851     
 Xe   9.2352466143559955       -23.656323846091894        2.8478457548298612     
 Xe   33.092224088905034        17.587806029258612        3.9609059775421200     
           5
 E= -0.35019560084012391      V=  -1.5588506845538843      T=   1.2086550837137604     
 Xe  -25.805087161185480       -67.647711851642157       -21.949600778857889     
 Xe  -24.038602266461112        99.423480729435894        16.841844166710839     
 Xe   6.4516636405724253       -21.777631536617786        6.0065629757971086     
 Xe   9.0907108038459921       -23.758703430525834        3.1263274315307905     
 Xe   33.301314983228508        17.760566089349645        3.9748662048192029     
           5
 E= -0.35060696877119346      V=  -1.7541788310436277      T=   1.4035718622724342     
 Xe  -25.934684880335091       -67.883747206312023       -22.039228426205462     
 Xe  -24.143416783772818        99.757593687296392        16.891778824616928     
 Xe   6.4056280582908549       -21.779854559668522        5.9848225662376464     
 Xe   9.1620677988575832       -24.027317959512551        3.1738006015606013     
 Xe   33.510405806959817        17.933326038196498        3.9888264337903312     
           5
 E= -0.34791518874252292      V=  -1.4252996414956005      T=   1.0773844527530776     
 Xe  -26.064282587758058       -68.119782545404220       -22.128856064412354     
 Xe  -24.248231300843312        100.09170664471964        16.941713482461420     
 Xe   6.2471750224743960       -21.695015454223192        6.0828149633189366     
 Xe   9.3458423024470534       -24.382994526689011        3.1015409542318295     
 Xe   33.719496563680281        18.106085881596652        4.0027866644002161     
           5
 E= -0.34791052750539608      V=  -1.2365373622155691      T=  0.88862683471017301     
 Xe  -26.193880283683729       -68.355817869278098       -22.218483693675601     
 Xe  -24.353045817677504        100.42581960171576        16.991648140245744     
 Xe   6.1995812654432765       -21.706540317672584        6.0743668861610178     
 Xe   9.4187575790935245       -24.642307039916886        3.1357217706615499     
 Xe   33.928587256824784        18.278845625151629        4.0167468966073212     
           5
 E= -0.34792028665683317      V=  -1.4335101574925768      T=   1.0855898708357437     
 Xe  -26.323477968340974       -68.591853178278285       -22.308111314181271     
 Xe  -24.457860334280156        100.75993255829491        17.041582797971294     
 Xe   6.2698369462783319       -21.825540739174414        5.9583407949711766     
 Xe   9.3738234667708511       -24.794143914847030        3.2774805908860909     
 Xe   34.137677889572302        18.451605274004649        4.0307071303527522     
